 # Fcc Pt.
  
        2988  atoms
           2  atom types
 
      0.000000000000      58.800000000000  xlo xhi
      0.000000000000      58.800000000000  ylo yhi
      0.000000000000      58.800000000000  zlo zhi
 
Masses
 
            1   195.08400000            # Pt
            2   106.42000000            # Pd
 
Atoms # atomic
 
         1    1       23.520000000000      21.560000196000       9.800000196000
         2    1       27.440000196000      21.560000196000       9.800000196000
         3    1       29.400000000000      19.599999804000       9.800000196000
         4    1       31.359999804000      21.560000196000       9.800000196000
         5    1       35.280000000000      21.560000196000       9.800000196000
         6    2       21.560000196000      23.520000000000       9.800000196000
         7    2       23.520000000000      25.479999804000       9.800000196000
         8    2       25.479999804000      23.520000000000       9.800000196000
         9    1       29.400000000000      25.479999804000       7.839999804000
        10    1       27.440000196000      25.479999804000       9.800000196000
        11    1       29.400000000000      23.520000000000       9.800000196000
        12    2       31.359999804000      25.479999804000       9.800000196000
        13    2       33.320000196000      23.520000000000       9.800000196000
        14    2       35.280000000000      25.479999804000       9.800000196000
        15    1       37.239999804000      23.520000000000       9.800000196000
        16    1       19.599999804000      29.400000000000       9.800000196000
        17    1       21.560000196000      27.440000196000       9.800000196000
        18    1       25.479999804000      29.400000000000       7.839999804000
        19    2       23.520000000000      29.400000000000       9.800000196000
        20    2       25.479999804000      27.440000196000       9.800000196000
        21    2       27.440000196000      27.440000196000       7.839999804000
        22    2       29.400000000000      29.400000000000       7.839999804000
        23    2       27.440000196000      29.400000000000       9.800000196000
        24    2       29.400000000000      27.440000196000       9.800000196000
        25    2       31.359999804000      27.440000196000       7.839999804000
        26    1       33.320000196000      29.400000000000       7.839999804000
        27    1       31.359999804000      29.400000000000       9.800000196000
        28    1       33.320000196000      27.440000196000       9.800000196000
        29    1       35.280000000000      29.400000000000       9.800000196000
        30    1       37.239999804000      27.440000196000       9.800000196000
        31    2       39.200000196000      29.400000000000       9.800000196000
        32    1       21.560000196000      31.359999804000       9.800000196000
        33    1       23.520000000000      33.320000196000       9.800000196000
        34    1       25.479999804000      31.359999804000       9.800000196000
        35    1       27.440000196000      31.359999804000       7.839999804000
        36    2       29.400000000000      33.320000196000       7.839999804000
        37    2       27.440000196000      33.320000196000       9.800000196000
        38    1       29.400000000000      31.359999804000       9.800000196000
        39    1       31.359999804000      31.359999804000       7.839999804000
        40    1       31.359999804000      33.320000196000       9.800000196000
        41    1       33.320000196000      31.359999804000       9.800000196000
        42    1       35.280000000000      33.320000196000       9.800000196000
        43    1       37.239999804000      31.359999804000       9.800000196000
        44    1       21.560000196000      35.280000000000       9.800000196000
        45    1       23.520000000000      37.239999804000       9.800000196000
        46    1       25.479999804000      35.280000000000       9.800000196000
        47    2       27.440000196000      37.239999804000       9.800000196000
        48    2       29.400000000000      35.280000000000       9.800000196000
        49    2       31.359999804000      37.239999804000       9.800000196000
        50    2       33.320000196000      35.280000000000       9.800000196000
        51    2       35.280000000000      37.239999804000       9.800000196000
        52    1       37.239999804000      35.280000000000       9.800000196000
        53    1       29.400000000000      39.200000196000       9.800000196000
        54    1       19.599999804000      17.640000000000      13.719999804000
        55    2       25.479999804000      17.640000000000      11.760000000000
        56    2       23.520000000000      17.640000000000      13.719999804000
        57    1       25.479999804000      15.680000196000      13.719999804000
        58    2       29.400000000000      17.640000000000      11.760000000000
        59    1       27.440000196000      17.640000000000      13.719999804000
        60    1       29.400000000000      15.680000196000      13.719999804000
        61    1       33.320000196000      17.640000000000      11.760000000000
        62    2       31.359999804000      17.640000000000      13.719999804000
        63    2       33.320000196000      15.680000196000      13.719999804000
        64    2       35.280000000000      17.640000000000      13.719999804000
        65    2       39.200000196000      17.640000000000      13.719999804000
        66    1       17.640000000000      19.599999804000      13.719999804000
        67    1       21.560000196000      21.560000196000      11.760000000000
        68    1       19.599999804000      21.560000196000      13.719999804000
        69    1       21.560000196000      19.599999804000      13.719999804000
        70    1       23.520000000000      19.599999804000      11.760000000000
        71    1       25.479999804000      21.560000196000      11.760000000000
        72    1       23.520000000000      21.560000196000      13.719999804000
        73    1       25.479999804000      19.599999804000      13.719999804000
        74    2       27.440000196000      19.599999804000      11.760000000000
        75    2       29.400000000000      21.560000196000      11.760000000000
        76    1       27.440000196000      21.560000196000      13.719999804000
        77    2       29.400000000000      19.599999804000      13.719999804000
        78    1       31.359999804000      19.599999804000      11.760000000000
        79    2       33.320000196000      21.560000196000      11.760000000000
        80    1       31.359999804000      21.560000196000      13.719999804000
        81    2       33.320000196000      19.599999804000      13.719999804000
        82    2       35.280000000000      19.599999804000      11.760000000000
        83    1       37.239999804000      21.560000196000      11.760000000000
        84    1       35.280000000000      21.560000196000      13.719999804000
        85    1       37.239999804000      19.599999804000      13.719999804000
        86    1       39.200000196000      21.560000196000      13.719999804000
        87    1       41.160000000000      19.599999804000      13.719999804000
        88    2       17.640000000000      25.479999804000      11.760000000000
        89    2       15.680000196000      25.479999804000      13.719999804000
        90    2       17.640000000000      23.520000000000      13.719999804000
        91    2       19.599999804000      23.520000000000      11.760000000000
        92    1       21.560000196000      25.479999804000      11.760000000000
        93    2       19.599999804000      25.479999804000      13.719999804000
        94    1       21.560000196000      23.520000000000      13.719999804000
        95    2       23.520000000000      23.520000000000      11.760000000000
        96    1       25.479999804000      25.479999804000      11.760000000000
        97    1       23.520000000000      25.479999804000      13.719999804000
        98    1       25.479999804000      23.520000000000      13.719999804000
        99    1       27.440000196000      23.520000000000      11.760000000000
       100    1       29.400000000000      25.479999804000      11.760000000000
       101    2       27.440000196000      25.479999804000      13.719999804000
       102    2       29.400000000000      23.520000000000      13.719999804000
       103    2       31.359999804000      23.520000000000      11.760000000000
       104    2       33.320000196000      25.479999804000      11.760000000000
       105    1       31.359999804000      25.479999804000      13.719999804000
       106    1       33.320000196000      23.520000000000      13.719999804000
       107    1       35.280000000000      23.520000000000      11.760000000000
       108    1       37.239999804000      25.479999804000      11.760000000000
       109    2       35.280000000000      25.479999804000      13.719999804000
       110    2       37.239999804000      23.520000000000      13.719999804000
       111    2       39.200000196000      23.520000000000      11.760000000000
       112    2       41.160000000000      25.479999804000      11.760000000000
       113    2       39.200000196000      25.479999804000      13.719999804000
       114    1       41.160000000000      23.520000000000      13.719999804000
       115    1       43.119999804000      25.479999804000      13.719999804000
       116    1       17.640000000000      29.400000000000      11.760000000000
       117    2       15.680000196000      29.400000000000      13.719999804000
       118    1       17.640000000000      27.440000196000      13.719999804000
       119    2       19.599999804000      27.440000196000      11.760000000000
       120    2       21.560000196000      29.400000000000      11.760000000000
       121    1       19.599999804000      29.400000000000      13.719999804000
       122    2       21.560000196000      27.440000196000      13.719999804000
       123    2       23.520000000000      27.440000196000      11.760000000000
       124    2       25.479999804000      29.400000000000      11.760000000000
       125    2       23.520000000000      29.400000000000      13.719999804000
       126    2       25.479999804000      27.440000196000      13.719999804000
       127    2       27.440000196000      27.440000196000      11.760000000000
       128    1       29.400000000000      29.400000000000      11.760000000000
       129    1       27.440000196000      29.400000000000      13.719999804000
       130    2       29.400000000000      27.440000196000      13.719999804000
       131    2       31.359999804000      27.440000196000      11.760000000000
       132    1       33.320000196000      29.400000000000      11.760000000000
       133    1       31.359999804000      29.400000000000      13.719999804000
       134    1       33.320000196000      27.440000196000      13.719999804000
       135    2       35.280000000000      27.440000196000      11.760000000000
       136    2       37.239999804000      29.400000000000      11.760000000000
       137    2       35.280000000000      29.400000000000      13.719999804000
       138    1       37.239999804000      27.440000196000      13.719999804000
       139    1       39.200000196000      27.440000196000      11.760000000000
       140    2       41.160000000000      29.400000000000      11.760000000000
       141    2       39.200000196000      29.400000000000      13.719999804000
       142    2       41.160000000000      27.440000196000      13.719999804000
       143    2       43.119999804000      29.400000000000      13.719999804000
       144    2       17.640000000000      33.320000196000      11.760000000000
       145    1       15.680000196000      33.320000196000      13.719999804000
       146    2       17.640000000000      31.359999804000      13.719999804000
       147    1       19.599999804000      31.359999804000      11.760000000000
       148    1       21.560000196000      33.320000196000      11.760000000000
       149    1       19.599999804000      33.320000196000      13.719999804000
       150    2       21.560000196000      31.359999804000      13.719999804000
       151    1       23.520000000000      31.359999804000      11.760000000000
       152    1       25.479999804000      33.320000196000      11.760000000000
       153    1       23.520000000000      33.320000196000      13.719999804000
       154    1       25.479999804000      31.359999804000      13.719999804000
       155    2       27.440000196000      31.359999804000      11.760000000000
       156    2       29.400000000000      33.320000196000      11.760000000000
       157    2       27.440000196000      33.320000196000      13.719999804000
       158    1       29.400000000000      31.359999804000      13.719999804000
       159    2       31.359999804000      31.359999804000      11.760000000000
       160    1       33.320000196000      33.320000196000      11.760000000000
       161    1       31.359999804000      33.320000196000      13.719999804000
       162    1       33.320000196000      31.359999804000      13.719999804000
       163    1       35.280000000000      31.359999804000      11.760000000000
       164    2       37.239999804000      33.320000196000      11.760000000000
       165    1       35.280000000000      33.320000196000      13.719999804000
       166    1       37.239999804000      31.359999804000      13.719999804000
       167    2       39.200000196000      31.359999804000      11.760000000000
       168    2       41.160000000000      33.320000196000      11.760000000000
       169    1       39.200000196000      33.320000196000      13.719999804000
       170    1       41.160000000000      31.359999804000      13.719999804000
       171    1       43.119999804000      33.320000196000      13.719999804000
       172    2       17.640000000000      35.280000000000      13.719999804000
       173    2       19.599999804000      35.280000000000      11.760000000000
       174    1       21.560000196000      37.239999804000      11.760000000000
       175    1       19.599999804000      37.239999804000      13.719999804000
       176    2       21.560000196000      35.280000000000      13.719999804000
       177    2       23.520000000000      35.280000000000      11.760000000000
       178    2       25.479999804000      37.239999804000      11.760000000000
       179    2       23.520000000000      37.239999804000      13.719999804000
       180    2       25.479999804000      35.280000000000      13.719999804000
       181    2       27.440000196000      35.280000000000      11.760000000000
       182    2       29.400000000000      37.239999804000      11.760000000000
       183    2       27.440000196000      37.239999804000      13.719999804000
       184    2       29.400000000000      35.280000000000      13.719999804000
       185    1       31.359999804000      35.280000000000      11.760000000000
       186    1       33.320000196000      37.239999804000      11.760000000000
       187    2       31.359999804000      37.239999804000      13.719999804000
       188    2       33.320000196000      35.280000000000      13.719999804000
       189    2       35.280000000000      35.280000000000      11.760000000000
       190    2       37.239999804000      37.239999804000      11.760000000000
       191    2       35.280000000000      37.239999804000      13.719999804000
       192    2       37.239999804000      35.280000000000      13.719999804000
       193    2       39.200000196000      35.280000000000      11.760000000000
       194    2       39.200000196000      37.239999804000      13.719999804000
       195    2       41.160000000000      35.280000000000      13.719999804000
       196    2       17.640000000000      39.200000196000      13.719999804000
       197    2       19.599999804000      41.160000000000      13.719999804000
       198    2       21.560000196000      39.200000196000      13.719999804000
       199    2       23.520000000000      39.200000196000      11.760000000000
       200    2       25.479999804000      41.160000000000      11.760000000000
       201    2       23.520000000000      41.160000000000      13.719999804000
       202    2       25.479999804000      39.200000196000      13.719999804000
       203    2       27.440000196000      39.200000196000      11.760000000000
       204    2       29.400000000000      41.160000000000      11.760000000000
       205    2       27.440000196000      41.160000000000      13.719999804000
       206    2       29.400000000000      39.200000196000      13.719999804000
       207    1       31.359999804000      39.200000196000      11.760000000000
       208    1       33.320000196000      41.160000000000      11.760000000000
       209    1       31.359999804000      41.160000000000      13.719999804000
       210    2       33.320000196000      39.200000196000      13.719999804000
       211    2       35.280000000000      39.200000196000      11.760000000000
       212    1       35.280000000000      41.160000000000      13.719999804000
       213    1       37.239999804000      39.200000196000      13.719999804000
       214    1       39.200000196000      41.160000000000      13.719999804000
       215    1       41.160000000000      39.200000196000      13.719999804000
       216    1       25.479999804000      43.119999804000      13.719999804000
       217    1       29.400000000000      43.119999804000      13.719999804000
       218    1       33.320000196000      43.119999804000      13.719999804000
       219    2       19.599999804000      13.719999804000      17.640000000000
       220    1       25.479999804000      13.719999804000      15.680000196000
       221    1       23.520000000000      13.719999804000      17.640000000000
       222    1       25.479999804000      11.760000000000      17.640000000000
       223    1       29.400000000000      13.719999804000      15.680000196000
       224    1       27.440000196000      13.719999804000      17.640000000000
       225    1       29.400000000000      11.760000000000      17.640000000000
       226    2       33.320000196000      13.719999804000      15.680000196000
       227    1       31.359999804000      13.719999804000      17.640000000000
       228    2       33.320000196000      11.760000000000      17.640000000000
       229    1       35.280000000000      13.719999804000      17.640000000000
       230    1       39.200000196000      13.719999804000      17.640000000000
       231    2       17.640000000000      17.640000000000      15.680000196000
       232    2       15.680000196000      17.640000000000      17.640000000000
       233    2       17.640000000000      15.680000196000      17.640000000000
       234    2       19.599999804000      15.680000196000      15.680000196000
       235    1       21.560000196000      17.640000000000      15.680000196000
       236    1       19.599999804000      17.640000000000      17.640000000000
       237    1       21.560000196000      15.680000196000      17.640000000000
       238    1       23.520000000000      15.680000196000      15.680000196000
       239    2       25.479999804000      17.640000000000      15.680000196000
       240    2       23.520000000000      17.640000000000      17.640000000000
       241    2       25.479999804000      15.680000196000      17.640000000000
       242    1       27.440000196000      15.680000196000      15.680000196000
       243    2       29.400000000000      17.640000000000      15.680000196000
       244    1       27.440000196000      17.640000000000      17.640000000000
       245    1       29.400000000000      15.680000196000      17.640000000000
       246    2       31.359999804000      15.680000196000      15.680000196000
       247    1       33.320000196000      17.640000000000      15.680000196000
       248    1       31.359999804000      17.640000000000      17.640000000000
       249    1       33.320000196000      15.680000196000      17.640000000000
       250    2       35.280000000000      15.680000196000      15.680000196000
       251    1       37.239999804000      17.640000000000      15.680000196000
       252    1       35.280000000000      17.640000000000      17.640000000000
       253    1       37.239999804000      15.680000196000      17.640000000000
       254    2       39.200000196000      15.680000196000      15.680000196000
       255    1       41.160000000000      17.640000000000      15.680000196000
       256    1       39.200000196000      17.640000000000      17.640000000000
       257    1       41.160000000000      15.680000196000      17.640000000000
       258    1       43.119999804000      17.640000000000      17.640000000000
       259    1       13.719999804000      19.599999804000      17.640000000000
       260    2       15.680000196000      19.599999804000      15.680000196000
       261    2       17.640000000000      21.560000196000      15.680000196000
       262    2       15.680000196000      21.560000196000      17.640000000000
       263    2       17.640000000000      19.599999804000      17.640000000000
       264    1       19.599999804000      19.599999804000      15.680000196000
       265    1       21.560000196000      21.560000196000      15.680000196000
       266    1       19.599999804000      21.560000196000      17.640000000000
       267    2       21.560000196000      19.599999804000      17.640000000000
       268    1       23.520000000000      19.599999804000      15.680000196000
       269    2       25.479999804000      21.560000196000      15.680000196000
       270    1       23.520000000000      21.560000196000      17.640000000000
       271    2       25.479999804000      19.599999804000      17.640000000000
       272    2       27.440000196000      19.599999804000      15.680000196000
       273    2       29.400000000000      21.560000196000      15.680000196000
       274    2       27.440000196000      21.560000196000      17.640000000000
       275    2       29.400000000000      19.599999804000      17.640000000000
       276    1       31.359999804000      19.599999804000      15.680000196000
       277    1       33.320000196000      21.560000196000      15.680000196000
       278    1       31.359999804000      21.560000196000      17.640000000000
       279    1       33.320000196000      19.599999804000      17.640000000000
       280    1       35.280000000000      19.599999804000      15.680000196000
       281    2       37.239999804000      21.560000196000      15.680000196000
       282    1       35.280000000000      21.560000196000      17.640000000000
       283    1       37.239999804000      19.599999804000      17.640000000000
       284    1       39.200000196000      19.599999804000      15.680000196000
       285    1       41.160000000000      21.560000196000      15.680000196000
       286    1       39.200000196000      21.560000196000      17.640000000000
       287    2       41.160000000000      19.599999804000      17.640000000000
       288    2       43.119999804000      19.599999804000      15.680000196000
       289    2       43.119999804000      21.560000196000      17.640000000000
       290    1       45.080000196000      19.599999804000      17.640000000000
       291    2       13.719999804000      25.479999804000      15.680000196000
       292    1       11.760000000000      25.479999804000      17.640000000000
       293    1       13.719999804000      23.520000000000      17.640000000000
       294    2       15.680000196000      23.520000000000      15.680000196000
       295    2       17.640000000000      25.479999804000      15.680000196000
       296    2       15.680000196000      25.479999804000      17.640000000000
       297    2       17.640000000000      23.520000000000      17.640000000000
       298    1       19.599999804000      23.520000000000      15.680000196000
       299    1       21.560000196000      25.479999804000      15.680000196000
       300    1       19.599999804000      25.479999804000      17.640000000000
       301    1       21.560000196000      23.520000000000      17.640000000000
       302    2       23.520000000000      23.520000000000      15.680000196000
       303    2       25.479999804000      25.479999804000      15.680000196000
       304    1       23.520000000000      25.479999804000      17.640000000000
       305    1       25.479999804000      23.520000000000      17.640000000000
       306    1       27.440000196000      23.520000000000      15.680000196000
       307    1       29.400000000000      25.479999804000      15.680000196000
       308    2       27.440000196000      25.479999804000      17.640000000000
       309    1       29.400000000000      23.520000000000      17.640000000000
       310    1       31.359999804000      23.520000000000      15.680000196000
       311    1       33.320000196000      25.479999804000      15.680000196000
       312    1       31.359999804000      25.479999804000      17.640000000000
       313    2       33.320000196000      23.520000000000      17.640000000000
       314    2       35.280000000000      23.520000000000      15.680000196000
       315    2       37.239999804000      25.479999804000      15.680000196000
       316    2       35.280000000000      25.479999804000      17.640000000000
       317    2       37.239999804000      23.520000000000      17.640000000000
       318    2       39.200000196000      23.520000000000      15.680000196000
       319    1       41.160000000000      25.479999804000      15.680000196000
       320    1       39.200000196000      25.479999804000      17.640000000000
       321    1       41.160000000000      23.520000000000      17.640000000000
       322    1       43.119999804000      23.520000000000      15.680000196000
       323    2       45.080000196000      25.479999804000      15.680000196000
       324    2       43.119999804000      25.479999804000      17.640000000000
       325    2       45.080000196000      23.520000000000      17.640000000000
       326    1       47.040000000000      25.479999804000      17.640000000000
       327    1       13.719999804000      29.400000000000      15.680000196000
       328    1       11.760000000000      29.400000000000      17.640000000000
       329    1       13.719999804000      27.440000196000      17.640000000000
       330    1       15.680000196000      27.440000196000      15.680000196000
       331    1       17.640000000000      29.400000000000      15.680000196000
       332    2       15.680000196000      29.400000000000      17.640000000000
       333    2       17.640000000000      27.440000196000      17.640000000000
       334    2       19.599999804000      27.440000196000      15.680000196000
       335    2       21.560000196000      29.400000000000      15.680000196000
       336    2       19.599999804000      29.400000000000      17.640000000000
       337    2       21.560000196000      27.440000196000      17.640000000000
       338    2       23.520000000000      27.440000196000      15.680000196000
       339    2       25.479999804000      29.400000000000      15.680000196000
       340    2       23.520000000000      29.400000000000      17.640000000000
       341    2       25.479999804000      27.440000196000      17.640000000000
       342    2       27.440000196000      27.440000196000      15.680000196000
       343    2       29.400000000000      29.400000000000      15.680000196000
       344    1       27.440000196000      29.400000000000      17.640000000000
       345    1       29.400000000000      27.440000196000      17.640000000000
       346    1       31.359999804000      27.440000196000      15.680000196000
       347    1       33.320000196000      29.400000000000      15.680000196000
       348    1       31.359999804000      29.400000000000      17.640000000000
       349    1       33.320000196000      27.440000196000      17.640000000000
       350    1       35.280000000000      27.440000196000      15.680000196000
       351    1       37.239999804000      29.400000000000      15.680000196000
       352    2       35.280000000000      29.400000000000      17.640000000000
       353    2       37.239999804000      27.440000196000      17.640000000000
       354    1       39.200000196000      27.440000196000      15.680000196000
       355    1       41.160000000000      29.400000000000      15.680000196000
       356    1       39.200000196000      29.400000000000      17.640000000000
       357    2       41.160000000000      27.440000196000      17.640000000000
       358    2       43.119999804000      27.440000196000      15.680000196000
       359    1       45.080000196000      29.400000000000      15.680000196000
       360    2       43.119999804000      29.400000000000      17.640000000000
       361    1       45.080000196000      27.440000196000      17.640000000000
       362    1       47.040000000000      29.400000000000      17.640000000000
       363    2       13.719999804000      33.320000196000      15.680000196000
       364    2       11.760000000000      33.320000196000      17.640000000000
       365    1       13.719999804000      31.359999804000      17.640000000000
       366    2       15.680000196000      31.359999804000      15.680000196000
       367    2       17.640000000000      33.320000196000      15.680000196000
       368    1       15.680000196000      33.320000196000      17.640000000000
       369    1       17.640000000000      31.359999804000      17.640000000000
       370    1       19.599999804000      31.359999804000      15.680000196000
       371    1       21.560000196000      33.320000196000      15.680000196000
       372    2       19.599999804000      33.320000196000      17.640000000000
       373    1       21.560000196000      31.359999804000      17.640000000000
       374    1       23.520000000000      31.359999804000      15.680000196000
       375    2       25.479999804000      33.320000196000      15.680000196000
       376    1       23.520000000000      33.320000196000      17.640000000000
       377    2       25.479999804000      31.359999804000      17.640000000000
       378    1       27.440000196000      31.359999804000      15.680000196000
       379    2       29.400000000000      33.320000196000      15.680000196000
       380    1       27.440000196000      33.320000196000      17.640000000000
       381    1       29.400000000000      31.359999804000      17.640000000000
       382    1       31.359999804000      31.359999804000      15.680000196000
       383    2       33.320000196000      33.320000196000      15.680000196000
       384    2       31.359999804000      33.320000196000      17.640000000000
       385    2       33.320000196000      31.359999804000      17.640000000000
       386    1       35.280000000000      31.359999804000      15.680000196000
       387    2       37.239999804000      33.320000196000      15.680000196000
       388    2       35.280000000000      33.320000196000      17.640000000000
       389    2       37.239999804000      31.359999804000      17.640000000000
       390    2       39.200000196000      31.359999804000      15.680000196000
       391    2       41.160000000000      33.320000196000      15.680000196000
       392    2       39.200000196000      33.320000196000      17.640000000000
       393    2       41.160000000000      31.359999804000      17.640000000000
       394    2       43.119999804000      31.359999804000      15.680000196000
       395    2       45.080000196000      33.320000196000      15.680000196000
       396    2       43.119999804000      33.320000196000      17.640000000000
       397    2       45.080000196000      31.359999804000      17.640000000000
       398    1       47.040000000000      33.320000196000      17.640000000000
       399    2       13.719999804000      35.280000000000      17.640000000000
       400    2       15.680000196000      35.280000000000      15.680000196000
       401    1       17.640000000000      37.239999804000      15.680000196000
       402    2       15.680000196000      37.239999804000      17.640000000000
       403    2       17.640000000000      35.280000000000      17.640000000000
       404    2       19.599999804000      35.280000000000      15.680000196000
       405    1       21.560000196000      37.239999804000      15.680000196000
       406    2       19.599999804000      37.239999804000      17.640000000000
       407    1       21.560000196000      35.280000000000      17.640000000000
       408    1       23.520000000000      35.280000000000      15.680000196000
       409    1       25.479999804000      37.239999804000      15.680000196000
       410    1       23.520000000000      37.239999804000      17.640000000000
       411    1       25.479999804000      35.280000000000      17.640000000000
       412    1       27.440000196000      35.280000000000      15.680000196000
       413    1       29.400000000000      37.239999804000      15.680000196000
       414    1       27.440000196000      37.239999804000      17.640000000000
       415    2       29.400000000000      35.280000000000      17.640000000000
       416    1       31.359999804000      35.280000000000      15.680000196000
       417    1       33.320000196000      37.239999804000      15.680000196000
       418    1       31.359999804000      37.239999804000      17.640000000000
       419    1       33.320000196000      35.280000000000      17.640000000000
       420    1       35.280000000000      35.280000000000      15.680000196000
       421    2       37.239999804000      37.239999804000      15.680000196000
       422    1       35.280000000000      37.239999804000      17.640000000000
       423    1       37.239999804000      35.280000000000      17.640000000000
       424    2       39.200000196000      35.280000000000      15.680000196000
       425    1       41.160000000000      37.239999804000      15.680000196000
       426    2       39.200000196000      37.239999804000      17.640000000000
       427    1       41.160000000000      35.280000000000      17.640000000000
       428    1       43.119999804000      35.280000000000      15.680000196000
       429    1       43.119999804000      37.239999804000      17.640000000000
       430    1       45.080000196000      35.280000000000      17.640000000000
       431    1       13.719999804000      39.200000196000      17.640000000000
       432    2       15.680000196000      39.200000196000      15.680000196000
       433    1       17.640000000000      41.160000000000      15.680000196000
       434    1       15.680000196000      41.160000000000      17.640000000000
       435    1       17.640000000000      39.200000196000      17.640000000000
       436    1       19.599999804000      39.200000196000      15.680000196000
       437    2       21.560000196000      41.160000000000      15.680000196000
       438    1       19.599999804000      41.160000000000      17.640000000000
       439    1       21.560000196000      39.200000196000      17.640000000000
       440    1       23.520000000000      39.200000196000      15.680000196000
       441    2       25.479999804000      41.160000000000      15.680000196000
       442    2       23.520000000000      41.160000000000      17.640000000000
       443    1       25.479999804000      39.200000196000      17.640000000000
       444    1       27.440000196000      39.200000196000      15.680000196000
       445    1       29.400000000000      41.160000000000      15.680000196000
       446    2       27.440000196000      41.160000000000      17.640000000000
       447    2       29.400000000000      39.200000196000      17.640000000000
       448    1       31.359999804000      39.200000196000      15.680000196000
       449    1       33.320000196000      41.160000000000      15.680000196000
       450    1       31.359999804000      41.160000000000      17.640000000000
       451    1       33.320000196000      39.200000196000      17.640000000000
       452    1       35.280000000000      39.200000196000      15.680000196000
       453    1       37.239999804000      41.160000000000      15.680000196000
       454    1       35.280000000000      41.160000000000      17.640000000000
       455    2       37.239999804000      39.200000196000      17.640000000000
       456    1       39.200000196000      39.200000196000      15.680000196000
       457    2       41.160000000000      41.160000000000      15.680000196000
       458    2       39.200000196000      41.160000000000      17.640000000000
       459    1       41.160000000000      39.200000196000      17.640000000000
       460    1       43.119999804000      39.200000196000      15.680000196000
       461    1       43.119999804000      41.160000000000      17.640000000000
       462    1       45.080000196000      39.200000196000      17.640000000000
       463    2       17.640000000000      43.119999804000      17.640000000000
       464    2       19.599999804000      43.119999804000      15.680000196000
       465    1       19.599999804000      45.080000196000      17.640000000000
       466    1       21.560000196000      43.119999804000      17.640000000000
       467    1       23.520000000000      43.119999804000      15.680000196000
       468    1       25.479999804000      45.080000196000      15.680000196000
       469    2       23.520000000000      45.080000196000      17.640000000000
       470    2       25.479999804000      43.119999804000      17.640000000000
       471    2       27.440000196000      43.119999804000      15.680000196000
       472    2       29.400000000000      45.080000196000      15.680000196000
       473    1       27.440000196000      45.080000196000      17.640000000000
       474    2       29.400000000000      43.119999804000      17.640000000000
       475    1       31.359999804000      43.119999804000      15.680000196000
       476    2       33.320000196000      45.080000196000      15.680000196000
       477    2       31.359999804000      45.080000196000      17.640000000000
       478    2       33.320000196000      43.119999804000      17.640000000000
       479    2       35.280000000000      43.119999804000      15.680000196000
       480    2       35.280000000000      45.080000196000      17.640000000000
       481    1       37.239999804000      43.119999804000      17.640000000000
       482    2       39.200000196000      43.119999804000      15.680000196000
       483    2       39.200000196000      45.080000196000      17.640000000000
       484    2       41.160000000000      43.119999804000      17.640000000000
       485    2       25.479999804000      47.040000000000      17.640000000000
       486    2       29.400000000000      47.040000000000      17.640000000000
       487    2       33.320000196000      47.040000000000      17.640000000000
       488    2       23.520000000000       9.800000196000      21.560000196000
       489    2       29.400000000000       9.800000196000      19.599999804000
       490    2       27.440000196000       9.800000196000      21.560000196000
       491    2       31.359999804000       9.800000196000      21.560000196000
       492    2       35.280000000000       9.800000196000      21.560000196000
       493    2       17.640000000000      13.719999804000      19.599999804000
       494    2       21.560000196000      13.719999804000      19.599999804000
       495    1       19.599999804000      13.719999804000      21.560000196000
       496    1       21.560000196000      11.760000000000      21.560000196000
       497    1       23.520000000000      11.760000000000      19.599999804000
       498    1       25.479999804000      13.719999804000      19.599999804000
       499    1       23.520000000000      13.719999804000      21.560000196000
       500    2       25.479999804000      11.760000000000      21.560000196000
       501    2       27.440000196000      11.760000000000      19.599999804000
       502    1       29.400000000000      13.719999804000      19.599999804000
       503    2       27.440000196000      13.719999804000      21.560000196000
       504    1       29.400000000000      11.760000000000      21.560000196000
       505    1       31.359999804000      11.760000000000      19.599999804000
       506    2       33.320000196000      13.719999804000      19.599999804000
       507    2       31.359999804000      13.719999804000      21.560000196000
       508    1       33.320000196000      11.760000000000      21.560000196000
       509    1       35.280000000000      11.760000000000      19.599999804000
       510    2       37.239999804000      13.719999804000      19.599999804000
       511    2       35.280000000000      13.719999804000      21.560000196000
       512    2       37.239999804000      11.760000000000      21.560000196000
       513    1       41.160000000000      13.719999804000      19.599999804000
       514    1       39.200000196000      13.719999804000      21.560000196000
       515    2       13.719999804000      17.640000000000      19.599999804000
       516    2       15.680000196000      15.680000196000      19.599999804000
       517    2       17.640000000000      17.640000000000      19.599999804000
       518    2       15.680000196000      17.640000000000      21.560000196000
       519    2       17.640000000000      15.680000196000      21.560000196000
       520    2       19.599999804000      15.680000196000      19.599999804000
       521    2       21.560000196000      17.640000000000      19.599999804000
       522    1       19.599999804000      17.640000000000      21.560000196000
       523    1       21.560000196000      15.680000196000      21.560000196000
       524    1       23.520000000000      15.680000196000      19.599999804000
       525    2       25.479999804000      17.640000000000      19.599999804000
       526    2       23.520000000000      17.640000000000      21.560000196000
       527    2       25.479999804000      15.680000196000      21.560000196000
       528    2       27.440000196000      15.680000196000      19.599999804000
       529    2       29.400000000000      17.640000000000      19.599999804000
       530    2       27.440000196000      17.640000000000      21.560000196000
       531    1       29.400000000000      15.680000196000      21.560000196000
       532    1       31.359999804000      15.680000196000      19.599999804000
       533    1       33.320000196000      17.640000000000      19.599999804000
       534    2       31.359999804000      17.640000000000      21.560000196000
       535    1       33.320000196000      15.680000196000      21.560000196000
       536    2       35.280000000000      15.680000196000      19.599999804000
       537    2       37.239999804000      17.640000000000      19.599999804000
       538    2       35.280000000000      17.640000000000      21.560000196000
       539    1       37.239999804000      15.680000196000      21.560000196000
       540    1       39.200000196000      15.680000196000      19.599999804000
       541    1       41.160000000000      17.640000000000      19.599999804000
       542    2       39.200000196000      17.640000000000      21.560000196000
       543    1       41.160000000000      15.680000196000      21.560000196000
       544    2       43.119999804000      15.680000196000      19.599999804000
       545    1       45.080000196000      17.640000000000      19.599999804000
       546    1       43.119999804000      17.640000000000      21.560000196000
       547    1       13.719999804000      21.560000196000      19.599999804000
       548    1       11.760000000000      21.560000196000      21.560000196000
       549    1       13.719999804000      19.599999804000      21.560000196000
       550    1       15.680000196000      19.599999804000      19.599999804000
       551    1       17.640000000000      21.560000196000      19.599999804000
       552    2       15.680000196000      21.560000196000      21.560000196000
       553    2       17.640000000000      19.599999804000      21.560000196000
       554    2       19.599999804000      19.599999804000      19.599999804000
       555    1       21.560000196000      21.560000196000      19.599999804000
       556    1       19.599999804000      21.560000196000      21.560000196000
       557    1       21.560000196000      19.599999804000      21.560000196000
       558    1       23.520000000000      19.599999804000      19.599999804000
       559    1       25.479999804000      21.560000196000      19.599999804000
       560    1       23.520000000000      21.560000196000      21.560000196000
       561    2       25.479999804000      19.599999804000      21.560000196000
       562    1       27.440000196000      19.599999804000      19.599999804000
       563    1       29.400000000000      21.560000196000      19.599999804000
       564    2       27.440000196000      21.560000196000      21.560000196000
       565    1       29.400000000000      19.599999804000      21.560000196000
       566    2       31.359999804000      19.599999804000      19.599999804000
       567    2       33.320000196000      21.560000196000      19.599999804000
       568    2       31.359999804000      21.560000196000      21.560000196000
       569    2       33.320000196000      19.599999804000      21.560000196000
       570    2       35.280000000000      19.599999804000      19.599999804000
       571    2       37.239999804000      21.560000196000      19.599999804000
       572    2       35.280000000000      21.560000196000      21.560000196000
       573    2       37.239999804000      19.599999804000      21.560000196000
       574    2       39.200000196000      19.599999804000      19.599999804000
       575    1       41.160000000000      21.560000196000      19.599999804000
       576    1       39.200000196000      21.560000196000      21.560000196000
       577    1       41.160000000000      19.599999804000      21.560000196000
       578    1       43.119999804000      19.599999804000      19.599999804000
       579    1       45.080000196000      21.560000196000      19.599999804000
       580    1       43.119999804000      21.560000196000      21.560000196000
       581    2       45.080000196000      19.599999804000      21.560000196000
       582    2       47.040000000000      21.560000196000      21.560000196000
       583    2        9.800000196000      23.520000000000      21.560000196000
       584    1       11.760000000000      23.520000000000      19.599999804000
       585    2       13.719999804000      25.479999804000      19.599999804000
       586    1       11.760000000000      25.479999804000      21.560000196000
       587    2       13.719999804000      23.520000000000      21.560000196000
       588    1       15.680000196000      23.520000000000      19.599999804000
       589    1       17.640000000000      25.479999804000      19.599999804000
       590    2       15.680000196000      25.479999804000      21.560000196000
       591    2       17.640000000000      23.520000000000      21.560000196000
       592    2       19.599999804000      23.520000000000      19.599999804000
       593    2       21.560000196000      25.479999804000      19.599999804000
       594    1       19.599999804000      25.479999804000      21.560000196000
       595    2       21.560000196000      23.520000000000      21.560000196000
       596    1       23.520000000000      23.520000000000      19.599999804000
       597    1       25.479999804000      25.479999804000      19.599999804000
       598    1       23.520000000000      25.479999804000      21.560000196000
       599    2       25.479999804000      23.520000000000      21.560000196000
       600    2       27.440000196000      23.520000000000      19.599999804000
       601    2       29.400000000000      25.479999804000      19.599999804000
       602    2       27.440000196000      25.479999804000      21.560000196000
       603    2       29.400000000000      23.520000000000      21.560000196000
       604    2       31.359999804000      23.520000000000      19.599999804000
       605    1       33.320000196000      25.479999804000      19.599999804000
       606    2       31.359999804000      25.479999804000      21.560000196000
       607    2       33.320000196000      23.520000000000      21.560000196000
       608    2       35.280000000000      23.520000000000      19.599999804000
       609    2       37.239999804000      25.479999804000      19.599999804000
       610    2       35.280000000000      25.479999804000      21.560000196000
       611    2       37.239999804000      23.520000000000      21.560000196000
       612    1       39.200000196000      23.520000000000      19.599999804000
       613    2       41.160000000000      25.479999804000      19.599999804000
       614    2       39.200000196000      25.479999804000      21.560000196000
       615    2       41.160000000000      23.520000000000      21.560000196000
       616    1       43.119999804000      23.520000000000      19.599999804000
       617    2       45.080000196000      25.479999804000      19.599999804000
       618    1       43.119999804000      25.479999804000      21.560000196000
       619    1       45.080000196000      23.520000000000      21.560000196000
       620    1       47.040000000000      23.520000000000      19.599999804000
       621    2       47.040000000000      25.479999804000      21.560000196000
       622    1       48.999999804000      23.520000000000      21.560000196000
       623    1        9.800000196000      29.400000000000      19.599999804000
       624    1        9.800000196000      27.440000196000      21.560000196000
       625    2       11.760000000000      27.440000196000      19.599999804000
       626    1       13.719999804000      29.400000000000      19.599999804000
       627    1       11.760000000000      29.400000000000      21.560000196000
       628    2       13.719999804000      27.440000196000      21.560000196000
       629    1       15.680000196000      27.440000196000      19.599999804000
       630    1       17.640000000000      29.400000000000      19.599999804000
       631    1       15.680000196000      29.400000000000      21.560000196000
       632    1       17.640000000000      27.440000196000      21.560000196000
       633    2       19.599999804000      27.440000196000      19.599999804000
       634    1       21.560000196000      29.400000000000      19.599999804000
       635    1       19.599999804000      29.400000000000      21.560000196000
       636    2       21.560000196000      27.440000196000      21.560000196000
       637    2       23.520000000000      27.440000196000      19.599999804000
       638    1       25.479999804000      29.400000000000      19.599999804000
       639    1       23.520000000000      29.400000000000      21.560000196000
       640    2       25.479999804000      27.440000196000      21.560000196000
       641    1       27.440000196000      27.440000196000      19.599999804000
       642    1       29.400000000000      29.400000000000      19.599999804000
       643    2       27.440000196000      29.400000000000      21.560000196000
       644    2       29.400000000000      27.440000196000      21.560000196000
       645    2       31.359999804000      27.440000196000      19.599999804000
       646    2       33.320000196000      29.400000000000      19.599999804000
       647    2       31.359999804000      29.400000000000      21.560000196000
       648    1       33.320000196000      27.440000196000      21.560000196000
       649    1       35.280000000000      27.440000196000      19.599999804000
       650    1       37.239999804000      29.400000000000      19.599999804000
       651    1       35.280000000000      29.400000000000      21.560000196000
       652    1       37.239999804000      27.440000196000      21.560000196000
       653    1       39.200000196000      27.440000196000      19.599999804000
       654    1       41.160000000000      29.400000000000      19.599999804000
       655    2       39.200000196000      29.400000000000      21.560000196000
       656    1       41.160000000000      27.440000196000      21.560000196000
       657    1       43.119999804000      27.440000196000      19.599999804000
       658    1       45.080000196000      29.400000000000      19.599999804000
       659    2       43.119999804000      29.400000000000      21.560000196000
       660    1       45.080000196000      27.440000196000      21.560000196000
       661    1       47.040000000000      27.440000196000      19.599999804000
       662    1       48.999999804000      29.400000000000      19.599999804000
       663    2       47.040000000000      29.400000000000      21.560000196000
       664    1       48.999999804000      27.440000196000      21.560000196000
       665    1        9.800000196000      31.359999804000      21.560000196000
       666    2       11.760000000000      31.359999804000      19.599999804000
       667    2       13.719999804000      33.320000196000      19.599999804000
       668    1       11.760000000000      33.320000196000      21.560000196000
       669    2       13.719999804000      31.359999804000      21.560000196000
       670    2       15.680000196000      31.359999804000      19.599999804000
       671    1       17.640000000000      33.320000196000      19.599999804000
       672    1       15.680000196000      33.320000196000      21.560000196000
       673    2       17.640000000000      31.359999804000      21.560000196000
       674    2       19.599999804000      31.359999804000      19.599999804000
       675    2       21.560000196000      33.320000196000      19.599999804000
       676    2       19.599999804000      33.320000196000      21.560000196000
       677    2       21.560000196000      31.359999804000      21.560000196000
       678    1       23.520000000000      31.359999804000      19.599999804000
       679    1       25.479999804000      33.320000196000      19.599999804000
       680    2       23.520000000000      33.320000196000      21.560000196000
       681    2       25.479999804000      31.359999804000      21.560000196000
       682    1       27.440000196000      31.359999804000      19.599999804000
       683    2       29.400000000000      33.320000196000      19.599999804000
       684    2       27.440000196000      33.320000196000      21.560000196000
       685    2       29.400000000000      31.359999804000      21.560000196000
       686    2       31.359999804000      31.359999804000      19.599999804000
       687    1       33.320000196000      33.320000196000      19.599999804000
       688    2       31.359999804000      33.320000196000      21.560000196000
       689    2       33.320000196000      31.359999804000      21.560000196000
       690    1       35.280000000000      31.359999804000      19.599999804000
       691    2       37.239999804000      33.320000196000      19.599999804000
       692    2       35.280000000000      33.320000196000      21.560000196000
       693    2       37.239999804000      31.359999804000      21.560000196000
       694    2       39.200000196000      31.359999804000      19.599999804000
       695    2       41.160000000000      33.320000196000      19.599999804000
       696    1       39.200000196000      33.320000196000      21.560000196000
       697    2       41.160000000000      31.359999804000      21.560000196000
       698    1       43.119999804000      31.359999804000      19.599999804000
       699    1       45.080000196000      33.320000196000      19.599999804000
       700    1       43.119999804000      33.320000196000      21.560000196000
       701    1       45.080000196000      31.359999804000      21.560000196000
       702    1       47.040000000000      31.359999804000      19.599999804000
       703    2       47.040000000000      33.320000196000      21.560000196000
       704    2       48.999999804000      31.359999804000      21.560000196000
       705    1        9.800000196000      35.280000000000      21.560000196000
       706    1       11.760000000000      35.280000000000      19.599999804000
       707    2       13.719999804000      37.239999804000      19.599999804000
       708    2       11.760000000000      37.239999804000      21.560000196000
       709    1       13.719999804000      35.280000000000      21.560000196000
       710    1       15.680000196000      35.280000000000      19.599999804000
       711    1       17.640000000000      37.239999804000      19.599999804000
       712    1       15.680000196000      37.239999804000      21.560000196000
       713    1       17.640000000000      35.280000000000      21.560000196000
       714    2       19.599999804000      35.280000000000      19.599999804000
       715    2       21.560000196000      37.239999804000      19.599999804000
       716    1       19.599999804000      37.239999804000      21.560000196000
       717    2       21.560000196000      35.280000000000      21.560000196000
       718    2       23.520000000000      35.280000000000      19.599999804000
       719    1       25.479999804000      37.239999804000      19.599999804000
       720    2       23.520000000000      37.239999804000      21.560000196000
       721    2       25.479999804000      35.280000000000      21.560000196000
       722    2       27.440000196000      35.280000000000      19.599999804000
       723    1       29.400000000000      37.239999804000      19.599999804000
       724    2       27.440000196000      37.239999804000      21.560000196000
       725    1       29.400000000000      35.280000000000      21.560000196000
       726    1       31.359999804000      35.280000000000      19.599999804000
       727    2       33.320000196000      37.239999804000      19.599999804000
       728    2       31.359999804000      37.239999804000      21.560000196000
       729    2       33.320000196000      35.280000000000      21.560000196000
       730    2       35.280000000000      35.280000000000      19.599999804000
       731    2       37.239999804000      37.239999804000      19.599999804000
       732    2       35.280000000000      37.239999804000      21.560000196000
       733    2       37.239999804000      35.280000000000      21.560000196000
       734    2       39.200000196000      35.280000000000      19.599999804000
       735    1       41.160000000000      37.239999804000      19.599999804000
       736    1       39.200000196000      37.239999804000      21.560000196000
       737    2       41.160000000000      35.280000000000      21.560000196000
       738    2       43.119999804000      35.280000000000      19.599999804000
       739    2       45.080000196000      37.239999804000      19.599999804000
       740    2       43.119999804000      37.239999804000      21.560000196000
       741    2       45.080000196000      35.280000000000      21.560000196000
       742    1       47.040000000000      35.280000000000      19.599999804000
       743    2       47.040000000000      37.239999804000      21.560000196000
       744    1       48.999999804000      35.280000000000      21.560000196000
       745    2       13.719999804000      41.160000000000      19.599999804000
       746    2       13.719999804000      39.200000196000      21.560000196000
       747    2       15.680000196000      39.200000196000      19.599999804000
       748    2       17.640000000000      41.160000000000      19.599999804000
       749    2       15.680000196000      41.160000000000      21.560000196000
       750    2       17.640000000000      39.200000196000      21.560000196000
       751    2       19.599999804000      39.200000196000      19.599999804000
       752    2       21.560000196000      41.160000000000      19.599999804000
       753    2       19.599999804000      41.160000000000      21.560000196000
       754    2       21.560000196000      39.200000196000      21.560000196000
       755    2       23.520000000000      39.200000196000      19.599999804000
       756    2       25.479999804000      41.160000000000      19.599999804000
       757    1       23.520000000000      41.160000000000      21.560000196000
       758    2       25.479999804000      39.200000196000      21.560000196000
       759    2       27.440000196000      39.200000196000      19.599999804000
       760    1       29.400000000000      41.160000000000      19.599999804000
       761    2       27.440000196000      41.160000000000      21.560000196000
       762    2       29.400000000000      39.200000196000      21.560000196000
       763    2       31.359999804000      39.200000196000      19.599999804000
       764    2       33.320000196000      41.160000000000      19.599999804000
       765    2       31.359999804000      41.160000000000      21.560000196000
       766    2       33.320000196000      39.200000196000      21.560000196000
       767    1       35.280000000000      39.200000196000      19.599999804000
       768    2       37.239999804000      41.160000000000      19.599999804000
       769    2       35.280000000000      41.160000000000      21.560000196000
       770    1       37.239999804000      39.200000196000      21.560000196000
       771    1       39.200000196000      39.200000196000      19.599999804000
       772    2       41.160000000000      41.160000000000      19.599999804000
       773    2       39.200000196000      41.160000000000      21.560000196000
       774    1       41.160000000000      39.200000196000      21.560000196000
       775    1       43.119999804000      39.200000196000      19.599999804000
       776    1       45.080000196000      41.160000000000      19.599999804000
       777    1       43.119999804000      41.160000000000      21.560000196000
       778    1       45.080000196000      39.200000196000      21.560000196000
       779    2       15.680000196000      43.119999804000      19.599999804000
       780    2       17.640000000000      45.080000196000      19.599999804000
       781    1       17.640000000000      43.119999804000      21.560000196000
       782    1       19.599999804000      43.119999804000      19.599999804000
       783    2       21.560000196000      45.080000196000      19.599999804000
       784    1       19.599999804000      45.080000196000      21.560000196000
       785    2       21.560000196000      43.119999804000      21.560000196000
       786    1       23.520000000000      43.119999804000      19.599999804000
       787    1       25.479999804000      45.080000196000      19.599999804000
       788    1       23.520000000000      45.080000196000      21.560000196000
       789    1       25.479999804000      43.119999804000      21.560000196000
       790    1       27.440000196000      43.119999804000      19.599999804000
       791    2       29.400000000000      45.080000196000      19.599999804000
       792    2       27.440000196000      45.080000196000      21.560000196000
       793    2       29.400000000000      43.119999804000      21.560000196000
       794    2       31.359999804000      43.119999804000      19.599999804000
       795    2       33.320000196000      45.080000196000      19.599999804000
       796    2       31.359999804000      45.080000196000      21.560000196000
       797    2       33.320000196000      43.119999804000      21.560000196000
       798    2       35.280000000000      43.119999804000      19.599999804000
       799    1       37.239999804000      45.080000196000      19.599999804000
       800    1       35.280000000000      45.080000196000      21.560000196000
       801    2       37.239999804000      43.119999804000      21.560000196000
       802    2       39.200000196000      43.119999804000      19.599999804000
       803    2       41.160000000000      45.080000196000      19.599999804000
       804    2       39.200000196000      45.080000196000      21.560000196000
       805    1       41.160000000000      43.119999804000      21.560000196000
       806    1       43.119999804000      43.119999804000      19.599999804000
       807    2       21.560000196000      47.040000000000      21.560000196000
       808    1       23.520000000000      47.040000000000      19.599999804000
       809    1       23.520000000000      48.999999804000      21.560000196000
       810    2       25.479999804000      47.040000000000      21.560000196000
       811    1       27.440000196000      47.040000000000      19.599999804000
       812    1       29.400000000000      48.999999804000      19.599999804000
       813    1       27.440000196000      48.999999804000      21.560000196000
       814    1       29.400000000000      47.040000000000      21.560000196000
       815    1       31.359999804000      47.040000000000      19.599999804000
       816    1       31.359999804000      48.999999804000      21.560000196000
       817    1       33.320000196000      47.040000000000      21.560000196000
       818    2       35.280000000000      47.040000000000      19.599999804000
       819    2       35.280000000000      48.999999804000      21.560000196000
       820    1       37.239999804000      47.040000000000      21.560000196000
       821    1       21.560000196000       9.800000196000      23.520000000000
       822    1       25.479999804000       9.800000196000      23.520000000000
       823    2       23.520000000000       9.800000196000      25.479999804000
       824    1       29.400000000000       9.800000196000      23.520000000000
       825    2       27.440000196000       9.800000196000      25.479999804000
       826    1       29.400000000000       7.839999804000      25.479999804000
       827    2       33.320000196000       9.800000196000      23.520000000000
       828    1       31.359999804000       9.800000196000      25.479999804000
       829    2       37.239999804000       9.800000196000      23.520000000000
       830    1       35.280000000000       9.800000196000      25.479999804000
       831    2       17.640000000000      13.719999804000      23.520000000000
       832    1       15.680000196000      13.719999804000      25.479999804000
       833    2       17.640000000000      11.760000000000      25.479999804000
       834    1       19.599999804000      11.760000000000      23.520000000000
       835    1       21.560000196000      13.719999804000      23.520000000000
       836    2       19.599999804000      13.719999804000      25.479999804000
       837    2       21.560000196000      11.760000000000      25.479999804000
       838    1       23.520000000000      11.760000000000      23.520000000000
       839    2       25.479999804000      13.719999804000      23.520000000000
       840    1       23.520000000000      13.719999804000      25.479999804000
       841    2       25.479999804000      11.760000000000      25.479999804000
       842    1       27.440000196000      11.760000000000      23.520000000000
       843    1       29.400000000000      13.719999804000      23.520000000000
       844    2       27.440000196000      13.719999804000      25.479999804000
       845    2       29.400000000000      11.760000000000      25.479999804000
       846    2       31.359999804000      11.760000000000      23.520000000000
       847    2       33.320000196000      13.719999804000      23.520000000000
       848    2       31.359999804000      13.719999804000      25.479999804000
       849    1       33.320000196000      11.760000000000      25.479999804000
       850    2       35.280000000000      11.760000000000      23.520000000000
       851    2       37.239999804000      13.719999804000      23.520000000000
       852    2       35.280000000000      13.719999804000      25.479999804000
       853    1       37.239999804000      11.760000000000      25.479999804000
       854    1       39.200000196000      11.760000000000      23.520000000000
       855    1       41.160000000000      13.719999804000      23.520000000000
       856    1       39.200000196000      13.719999804000      25.479999804000
       857    1       41.160000000000      11.760000000000      25.479999804000
       858    1       43.119999804000      13.719999804000      25.479999804000
       859    1       13.719999804000      17.640000000000      23.520000000000
       860    2       11.760000000000      17.640000000000      25.479999804000
       861    1       13.719999804000      15.680000196000      25.479999804000
       862    1       15.680000196000      15.680000196000      23.520000000000
       863    1       17.640000000000      17.640000000000      23.520000000000
       864    2       15.680000196000      17.640000000000      25.479999804000
       865    1       17.640000000000      15.680000196000      25.479999804000
       866    2       19.599999804000      15.680000196000      23.520000000000
       867    1       21.560000196000      17.640000000000      23.520000000000
       868    1       19.599999804000      17.640000000000      25.479999804000
       869    2       21.560000196000      15.680000196000      25.479999804000
       870    2       23.520000000000      15.680000196000      23.520000000000
       871    1       25.479999804000      17.640000000000      23.520000000000
       872    1       23.520000000000      17.640000000000      25.479999804000
       873    1       25.479999804000      15.680000196000      25.479999804000
       874    1       27.440000196000      15.680000196000      23.520000000000
       875    1       29.400000000000      17.640000000000      23.520000000000
       876    1       27.440000196000      17.640000000000      25.479999804000
       877    2       29.400000000000      15.680000196000      25.479999804000
       878    2       31.359999804000      15.680000196000      23.520000000000
       879    1       33.320000196000      17.640000000000      23.520000000000
       880    2       31.359999804000      17.640000000000      25.479999804000
       881    1       33.320000196000      15.680000196000      25.479999804000
       882    2       35.280000000000      15.680000196000      23.520000000000
       883    2       37.239999804000      17.640000000000      23.520000000000
       884    1       35.280000000000      17.640000000000      25.479999804000
       885    1       37.239999804000      15.680000196000      25.479999804000
       886    1       39.200000196000      15.680000196000      23.520000000000
       887    2       41.160000000000      17.640000000000      23.520000000000
       888    1       39.200000196000      17.640000000000      25.479999804000
       889    1       41.160000000000      15.680000196000      25.479999804000
       890    2       43.119999804000      15.680000196000      23.520000000000
       891    2       45.080000196000      17.640000000000      23.520000000000
       892    1       43.119999804000      17.640000000000      25.479999804000
       893    2       45.080000196000      15.680000196000      25.479999804000
       894    1       47.040000000000      17.640000000000      25.479999804000
       895    2        9.800000196000      21.560000196000      23.520000000000
       896    2       11.760000000000      19.599999804000      23.520000000000
       897    1       13.719999804000      21.560000196000      23.520000000000
       898    1       11.760000000000      21.560000196000      25.479999804000
       899    1       13.719999804000      19.599999804000      25.479999804000
       900    1       15.680000196000      19.599999804000      23.520000000000
       901    1       17.640000000000      21.560000196000      23.520000000000
       902    2       15.680000196000      21.560000196000      25.479999804000
       903    1       17.640000000000      19.599999804000      25.479999804000
       904    2       19.599999804000      19.599999804000      23.520000000000
       905    1       21.560000196000      21.560000196000      23.520000000000
       906    2       19.599999804000      21.560000196000      25.479999804000
       907    2       21.560000196000      19.599999804000      25.479999804000
       908    2       23.520000000000      19.599999804000      23.520000000000
       909    2       25.479999804000      21.560000196000      23.520000000000
       910    2       23.520000000000      21.560000196000      25.479999804000
       911    1       25.479999804000      19.599999804000      25.479999804000
       912    2       27.440000196000      19.599999804000      23.520000000000
       913    1       29.400000000000      21.560000196000      23.520000000000
       914    1       27.440000196000      21.560000196000      25.479999804000
       915    1       29.400000000000      19.599999804000      25.479999804000
       916    1       31.359999804000      19.599999804000      23.520000000000
       917    2       33.320000196000      21.560000196000      23.520000000000
       918    2       31.359999804000      21.560000196000      25.479999804000
       919    2       33.320000196000      19.599999804000      25.479999804000
       920    1       35.280000000000      19.599999804000      23.520000000000
       921    1       37.239999804000      21.560000196000      23.520000000000
       922    1       35.280000000000      21.560000196000      25.479999804000
       923    1       37.239999804000      19.599999804000      25.479999804000
       924    1       39.200000196000      19.599999804000      23.520000000000
       925    1       41.160000000000      21.560000196000      23.520000000000
       926    2       39.200000196000      21.560000196000      25.479999804000
       927    2       41.160000000000      19.599999804000      25.479999804000
       928    1       43.119999804000      19.599999804000      23.520000000000
       929    1       45.080000196000      21.560000196000      23.520000000000
       930    1       43.119999804000      21.560000196000      25.479999804000
       931    1       45.080000196000      19.599999804000      25.479999804000
       932    1       47.040000000000      19.599999804000      23.520000000000
       933    1       48.999999804000      21.560000196000      23.520000000000
       934    2       47.040000000000      21.560000196000      25.479999804000
       935    2        9.800000196000      25.479999804000      23.520000000000
       936    2        9.800000196000      23.520000000000      25.479999804000
       937    2       11.760000000000      23.520000000000      23.520000000000
       938    2       13.719999804000      25.479999804000      23.520000000000
       939    2       11.760000000000      25.479999804000      25.479999804000
       940    1       13.719999804000      23.520000000000      25.479999804000
       941    1       15.680000196000      23.520000000000      23.520000000000
       942    1       17.640000000000      25.479999804000      23.520000000000
       943    1       15.680000196000      25.479999804000      25.479999804000
       944    2       17.640000000000      23.520000000000      25.479999804000
       945    1       19.599999804000      23.520000000000      23.520000000000
       946    1       21.560000196000      25.479999804000      23.520000000000
       947    1       19.599999804000      25.479999804000      25.479999804000
       948    1       21.560000196000      23.520000000000      25.479999804000
       949    2       23.520000000000      23.520000000000      23.520000000000
       950    1       25.479999804000      25.479999804000      23.520000000000
       951    2       23.520000000000      25.479999804000      25.479999804000
       952    1       25.479999804000      23.520000000000      25.479999804000
       953    1       27.440000196000      23.520000000000      23.520000000000
       954    1       29.400000000000      25.479999804000      23.520000000000
       955    1       27.440000196000      25.479999804000      25.479999804000
       956    2       29.400000000000      23.520000000000      25.479999804000
       957    1       31.359999804000      23.520000000000      23.520000000000
       958    2       33.320000196000      25.479999804000      23.520000000000
       959    1       31.359999804000      25.479999804000      25.479999804000
       960    1       33.320000196000      23.520000000000      25.479999804000
       961    1       35.280000000000      23.520000000000      23.520000000000
       962    1       37.239999804000      25.479999804000      23.520000000000
       963    1       35.280000000000      25.479999804000      25.479999804000
       964    2       37.239999804000      23.520000000000      25.479999804000
       965    1       39.200000196000      23.520000000000      23.520000000000
       966    2       41.160000000000      25.479999804000      23.520000000000
       967    2       39.200000196000      25.479999804000      25.479999804000
       968    2       41.160000000000      23.520000000000      25.479999804000
       969    1       43.119999804000      23.520000000000      23.520000000000
       970    1       45.080000196000      25.479999804000      23.520000000000
       971    1       43.119999804000      25.479999804000      25.479999804000
       972    2       45.080000196000      23.520000000000      25.479999804000
       973    2       47.040000000000      23.520000000000      23.520000000000
       974    2       48.999999804000      25.479999804000      23.520000000000
       975    2       47.040000000000      25.479999804000      25.479999804000
       976    1       48.999999804000      23.520000000000      25.479999804000
       977    2        9.800000196000      29.400000000000      23.520000000000
       978    1        7.839999804000      29.400000000000      25.479999804000
       979    2        9.800000196000      27.440000196000      25.479999804000
       980    1       11.760000000000      27.440000196000      23.520000000000
       981    2       13.719999804000      29.400000000000      23.520000000000
       982    2       11.760000000000      29.400000000000      25.479999804000
       983    1       13.719999804000      27.440000196000      25.479999804000
       984    1       15.680000196000      27.440000196000      23.520000000000
       985    1       17.640000000000      29.400000000000      23.520000000000
       986    2       15.680000196000      29.400000000000      25.479999804000
       987    1       17.640000000000      27.440000196000      25.479999804000
       988    1       19.599999804000      27.440000196000      23.520000000000
       989    1       21.560000196000      29.400000000000      23.520000000000
       990    1       19.599999804000      29.400000000000      25.479999804000
       991    2       21.560000196000      27.440000196000      25.479999804000
       992    2       23.520000000000      27.440000196000      23.520000000000
       993    1       25.479999804000      29.400000000000      23.520000000000
       994    2       23.520000000000      29.400000000000      25.479999804000
       995    1       25.479999804000      27.440000196000      25.479999804000
       996    2       27.440000196000      27.440000196000      23.520000000000
       997    2       29.400000000000      29.400000000000      23.520000000000
       998    1       27.440000196000      29.400000000000      25.479999804000
       999    1       29.400000000000      27.440000196000      25.479999804000
      1000    1       31.359999804000      27.440000196000      23.520000000000
      1001    1       33.320000196000      29.400000000000      23.520000000000
      1002    1       31.359999804000      29.400000000000      25.479999804000
      1003    1       33.320000196000      27.440000196000      25.479999804000
      1004    2       35.280000000000      27.440000196000      23.520000000000
      1005    2       37.239999804000      29.400000000000      23.520000000000
      1006    2       35.280000000000      29.400000000000      25.479999804000
      1007    2       37.239999804000      27.440000196000      25.479999804000
      1008    2       39.200000196000      27.440000196000      23.520000000000
      1009    2       41.160000000000      29.400000000000      23.520000000000
      1010    1       39.200000196000      29.400000000000      25.479999804000
      1011    1       41.160000000000      27.440000196000      25.479999804000
      1012    1       43.119999804000      27.440000196000      23.520000000000
      1013    2       45.080000196000      29.400000000000      23.520000000000
      1014    2       43.119999804000      29.400000000000      25.479999804000
      1015    2       45.080000196000      27.440000196000      25.479999804000
      1016    2       47.040000000000      27.440000196000      23.520000000000
      1017    2       48.999999804000      29.400000000000      23.520000000000
      1018    2       47.040000000000      29.400000000000      25.479999804000
      1019    2       48.999999804000      27.440000196000      25.479999804000
      1020    2       50.960000196000      29.400000000000      25.479999804000
      1021    2        9.800000196000      33.320000196000      23.520000000000
      1022    2        9.800000196000      31.359999804000      25.479999804000
      1023    2       11.760000000000      31.359999804000      23.520000000000
      1024    2       13.719999804000      33.320000196000      23.520000000000
      1025    2       11.760000000000      33.320000196000      25.479999804000
      1026    2       13.719999804000      31.359999804000      25.479999804000
      1027    2       15.680000196000      31.359999804000      23.520000000000
      1028    2       17.640000000000      33.320000196000      23.520000000000
      1029    2       15.680000196000      33.320000196000      25.479999804000
      1030    2       17.640000000000      31.359999804000      25.479999804000
      1031    2       19.599999804000      31.359999804000      23.520000000000
      1032    2       21.560000196000      33.320000196000      23.520000000000
      1033    1       19.599999804000      33.320000196000      25.479999804000
      1034    1       21.560000196000      31.359999804000      25.479999804000
      1035    1       23.520000000000      31.359999804000      23.520000000000
      1036    2       25.479999804000      33.320000196000      23.520000000000
      1037    1       23.520000000000      33.320000196000      25.479999804000
      1038    2       25.479999804000      31.359999804000      25.479999804000
      1039    1       27.440000196000      31.359999804000      23.520000000000
      1040    2       29.400000000000      33.320000196000      23.520000000000
      1041    1       27.440000196000      33.320000196000      25.479999804000
      1042    1       29.400000000000      31.359999804000      25.479999804000
      1043    2       31.359999804000      31.359999804000      23.520000000000
      1044    2       33.320000196000      33.320000196000      23.520000000000
      1045    1       31.359999804000      33.320000196000      25.479999804000
      1046    1       33.320000196000      31.359999804000      25.479999804000
      1047    1       35.280000000000      31.359999804000      23.520000000000
      1048    2       37.239999804000      33.320000196000      23.520000000000
      1049    2       35.280000000000      33.320000196000      25.479999804000
      1050    1       37.239999804000      31.359999804000      25.479999804000
      1051    2       39.200000196000      31.359999804000      23.520000000000
      1052    1       41.160000000000      33.320000196000      23.520000000000
      1053    2       39.200000196000      33.320000196000      25.479999804000
      1054    2       41.160000000000      31.359999804000      25.479999804000
      1055    2       43.119999804000      31.359999804000      23.520000000000
      1056    1       45.080000196000      33.320000196000      23.520000000000
      1057    1       43.119999804000      33.320000196000      25.479999804000
      1058    1       45.080000196000      31.359999804000      25.479999804000
      1059    1       47.040000000000      31.359999804000      23.520000000000
      1060    1       48.999999804000      33.320000196000      23.520000000000
      1061    2       47.040000000000      33.320000196000      25.479999804000
      1062    2       48.999999804000      31.359999804000      25.479999804000
      1063    1        9.800000196000      37.239999804000      23.520000000000
      1064    2        9.800000196000      35.280000000000      25.479999804000
      1065    2       11.760000000000      35.280000000000      23.520000000000
      1066    2       13.719999804000      37.239999804000      23.520000000000
      1067    2       11.760000000000      37.239999804000      25.479999804000
      1068    2       13.719999804000      35.280000000000      25.479999804000
      1069    2       15.680000196000      35.280000000000      23.520000000000
      1070    2       17.640000000000      37.239999804000      23.520000000000
      1071    2       15.680000196000      37.239999804000      25.479999804000
      1072    2       17.640000000000      35.280000000000      25.479999804000
      1073    1       19.599999804000      35.280000000000      23.520000000000
      1074    1       21.560000196000      37.239999804000      23.520000000000
      1075    1       19.599999804000      37.239999804000      25.479999804000
      1076    2       21.560000196000      35.280000000000      25.479999804000
      1077    1       23.520000000000      35.280000000000      23.520000000000
      1078    1       25.479999804000      37.239999804000      23.520000000000
      1079    2       23.520000000000      37.239999804000      25.479999804000
      1080    2       25.479999804000      35.280000000000      25.479999804000
      1081    1       27.440000196000      35.280000000000      23.520000000000
      1082    2       29.400000000000      37.239999804000      23.520000000000
      1083    1       27.440000196000      37.239999804000      25.479999804000
      1084    1       29.400000000000      35.280000000000      25.479999804000
      1085    1       31.359999804000      35.280000000000      23.520000000000
      1086    2       33.320000196000      37.239999804000      23.520000000000
      1087    2       31.359999804000      37.239999804000      25.479999804000
      1088    2       33.320000196000      35.280000000000      25.479999804000
      1089    2       35.280000000000      35.280000000000      23.520000000000
      1090    2       37.239999804000      37.239999804000      23.520000000000
      1091    1       35.280000000000      37.239999804000      25.479999804000
      1092    2       37.239999804000      35.280000000000      25.479999804000
      1093    2       39.200000196000      35.280000000000      23.520000000000
      1094    2       41.160000000000      37.239999804000      23.520000000000
      1095    2       39.200000196000      37.239999804000      25.479999804000
      1096    2       41.160000000000      35.280000000000      25.479999804000
      1097    2       43.119999804000      35.280000000000      23.520000000000
      1098    1       45.080000196000      37.239999804000      23.520000000000
      1099    1       43.119999804000      37.239999804000      25.479999804000
      1100    2       45.080000196000      35.280000000000      25.479999804000
      1101    2       47.040000000000      35.280000000000      23.520000000000
      1102    1       48.999999804000      37.239999804000      23.520000000000
      1103    1       47.040000000000      37.239999804000      25.479999804000
      1104    2       48.999999804000      35.280000000000      25.479999804000
      1105    1       11.760000000000      39.200000196000      23.520000000000
      1106    1       13.719999804000      41.160000000000      23.520000000000
      1107    1       11.760000000000      41.160000000000      25.479999804000
      1108    2       13.719999804000      39.200000196000      25.479999804000
      1109    2       15.680000196000      39.200000196000      23.520000000000
      1110    2       17.640000000000      41.160000000000      23.520000000000
      1111    2       15.680000196000      41.160000000000      25.479999804000
      1112    1       17.640000000000      39.200000196000      25.479999804000
      1113    1       19.599999804000      39.200000196000      23.520000000000
      1114    1       21.560000196000      41.160000000000      23.520000000000
      1115    1       19.599999804000      41.160000000000      25.479999804000
      1116    2       21.560000196000      39.200000196000      25.479999804000
      1117    2       23.520000000000      39.200000196000      23.520000000000
      1118    2       25.479999804000      41.160000000000      23.520000000000
      1119    2       23.520000000000      41.160000000000      25.479999804000
      1120    2       25.479999804000      39.200000196000      25.479999804000
      1121    2       27.440000196000      39.200000196000      23.520000000000
      1122    2       29.400000000000      41.160000000000      23.520000000000
      1123    2       27.440000196000      41.160000000000      25.479999804000
      1124    2       29.400000000000      39.200000196000      25.479999804000
      1125    2       31.359999804000      39.200000196000      23.520000000000
      1126    2       33.320000196000      41.160000000000      23.520000000000
      1127    2       31.359999804000      41.160000000000      25.479999804000
      1128    2       33.320000196000      39.200000196000      25.479999804000
      1129    2       35.280000000000      39.200000196000      23.520000000000
      1130    2       37.239999804000      41.160000000000      23.520000000000
      1131    2       35.280000000000      41.160000000000      25.479999804000
      1132    1       37.239999804000      39.200000196000      25.479999804000
      1133    1       39.200000196000      39.200000196000      23.520000000000
      1134    2       41.160000000000      41.160000000000      23.520000000000
      1135    2       39.200000196000      41.160000000000      25.479999804000
      1136    2       41.160000000000      39.200000196000      25.479999804000
      1137    2       43.119999804000      39.200000196000      23.520000000000
      1138    2       45.080000196000      41.160000000000      23.520000000000
      1139    2       43.119999804000      41.160000000000      25.479999804000
      1140    1       45.080000196000      39.200000196000      25.479999804000
      1141    2       47.040000000000      39.200000196000      23.520000000000
      1142    1       47.040000000000      41.160000000000      25.479999804000
      1143    1       13.719999804000      43.119999804000      25.479999804000
      1144    2       15.680000196000      43.119999804000      23.520000000000
      1145    2       17.640000000000      45.080000196000      23.520000000000
      1146    2       15.680000196000      45.080000196000      25.479999804000
      1147    2       17.640000000000      43.119999804000      25.479999804000
      1148    2       19.599999804000      43.119999804000      23.520000000000
      1149    2       21.560000196000      45.080000196000      23.520000000000
      1150    2       19.599999804000      45.080000196000      25.479999804000
      1151    2       21.560000196000      43.119999804000      25.479999804000
      1152    2       23.520000000000      43.119999804000      23.520000000000
      1153    2       25.479999804000      45.080000196000      23.520000000000
      1154    1       23.520000000000      45.080000196000      25.479999804000
      1155    1       25.479999804000      43.119999804000      25.479999804000
      1156    1       27.440000196000      43.119999804000      23.520000000000
      1157    1       29.400000000000      45.080000196000      23.520000000000
      1158    1       27.440000196000      45.080000196000      25.479999804000
      1159    1       29.400000000000      43.119999804000      25.479999804000
      1160    1       31.359999804000      43.119999804000      23.520000000000
      1161    2       33.320000196000      45.080000196000      23.520000000000
      1162    1       31.359999804000      45.080000196000      25.479999804000
      1163    2       33.320000196000      43.119999804000      25.479999804000
      1164    2       35.280000000000      43.119999804000      23.520000000000
      1165    2       37.239999804000      45.080000196000      23.520000000000
      1166    2       35.280000000000      45.080000196000      25.479999804000
      1167    1       37.239999804000      43.119999804000      25.479999804000
      1168    1       39.200000196000      43.119999804000      23.520000000000
      1169    2       41.160000000000      45.080000196000      23.520000000000
      1170    2       39.200000196000      45.080000196000      25.479999804000
      1171    2       41.160000000000      43.119999804000      25.479999804000
      1172    2       43.119999804000      43.119999804000      23.520000000000
      1173    2       43.119999804000      45.080000196000      25.479999804000
      1174    1       45.080000196000      43.119999804000      25.479999804000
      1175    2       17.640000000000      47.040000000000      25.479999804000
      1176    1       19.599999804000      47.040000000000      23.520000000000
      1177    1       21.560000196000      48.999999804000      23.520000000000
      1178    1       21.560000196000      47.040000000000      25.479999804000
      1179    1       23.520000000000      47.040000000000      23.520000000000
      1180    1       25.479999804000      48.999999804000      23.520000000000
      1181    1       23.520000000000      48.999999804000      25.479999804000
      1182    1       25.479999804000      47.040000000000      25.479999804000
      1183    1       27.440000196000      47.040000000000      23.520000000000
      1184    1       29.400000000000      48.999999804000      23.520000000000
      1185    1       27.440000196000      48.999999804000      25.479999804000
      1186    2       29.400000000000      47.040000000000      25.479999804000
      1187    2       31.359999804000      47.040000000000      23.520000000000
      1188    2       33.320000196000      48.999999804000      23.520000000000
      1189    1       31.359999804000      48.999999804000      25.479999804000
      1190    1       33.320000196000      47.040000000000      25.479999804000
      1191    1       35.280000000000      47.040000000000      23.520000000000
      1192    2       37.239999804000      48.999999804000      23.520000000000
      1193    2       35.280000000000      48.999999804000      25.479999804000
      1194    1       37.239999804000      47.040000000000      25.479999804000
      1195    1       39.200000196000      47.040000000000      23.520000000000
      1196    1       41.160000000000      47.040000000000      25.479999804000
      1197    1       29.400000000000      50.960000196000      25.479999804000
      1198    1       21.560000196000       9.800000196000      27.440000196000
      1199    1       19.599999804000       9.800000196000      29.400000000000
      1200    2       25.479999804000       9.800000196000      27.440000196000
      1201    1       23.520000000000       9.800000196000      29.400000000000
      1202    1       25.479999804000       7.839999804000      29.400000000000
      1203    2       27.440000196000       7.839999804000      27.440000196000
      1204    2       29.400000000000       9.800000196000      27.440000196000
      1205    1       27.440000196000       9.800000196000      29.400000000000
      1206    1       29.400000000000       7.839999804000      29.400000000000
      1207    1       31.359999804000       7.839999804000      27.440000196000
      1208    2       33.320000196000       9.800000196000      27.440000196000
      1209    2       31.359999804000       9.800000196000      29.400000000000
      1210    1       33.320000196000       7.839999804000      29.400000000000
      1211    1       37.239999804000       9.800000196000      27.440000196000
      1212    1       35.280000000000       9.800000196000      29.400000000000
      1213    1       39.200000196000       9.800000196000      29.400000000000
      1214    1       17.640000000000      13.719999804000      27.440000196000
      1215    2       15.680000196000      13.719999804000      29.400000000000
      1216    1       17.640000000000      11.760000000000      29.400000000000
      1217    2       19.599999804000      11.760000000000      27.440000196000
      1218    2       21.560000196000      13.719999804000      27.440000196000
      1219    2       19.599999804000      13.719999804000      29.400000000000
      1220    1       21.560000196000      11.760000000000      29.400000000000
      1221    2       23.520000000000      11.760000000000      27.440000196000
      1222    2       25.479999804000      13.719999804000      27.440000196000
      1223    2       23.520000000000      13.719999804000      29.400000000000
      1224    2       25.479999804000      11.760000000000      29.400000000000
      1225    1       27.440000196000      11.760000000000      27.440000196000
      1226    1       29.400000000000      13.719999804000      27.440000196000
      1227    2       27.440000196000      13.719999804000      29.400000000000
      1228    1       29.400000000000      11.760000000000      29.400000000000
      1229    1       31.359999804000      11.760000000000      27.440000196000
      1230    2       33.320000196000      13.719999804000      27.440000196000
      1231    2       31.359999804000      13.719999804000      29.400000000000
      1232    1       33.320000196000      11.760000000000      29.400000000000
      1233    1       35.280000000000      11.760000000000      27.440000196000
      1234    1       37.239999804000      13.719999804000      27.440000196000
      1235    2       35.280000000000      13.719999804000      29.400000000000
      1236    2       37.239999804000      11.760000000000      29.400000000000
      1237    2       39.200000196000      11.760000000000      27.440000196000
      1238    1       41.160000000000      13.719999804000      27.440000196000
      1239    1       39.200000196000      13.719999804000      29.400000000000
      1240    2       41.160000000000      11.760000000000      29.400000000000
      1241    2       43.119999804000      13.719999804000      29.400000000000
      1242    2       13.719999804000      17.640000000000      27.440000196000
      1243    1       11.760000000000      17.640000000000      29.400000000000
      1244    1       13.719999804000      15.680000196000      29.400000000000
      1245    1       15.680000196000      15.680000196000      27.440000196000
      1246    1       17.640000000000      17.640000000000      27.440000196000
      1247    1       15.680000196000      17.640000000000      29.400000000000
      1248    1       17.640000000000      15.680000196000      29.400000000000
      1249    1       19.599999804000      15.680000196000      27.440000196000
      1250    2       21.560000196000      17.640000000000      27.440000196000
      1251    2       19.599999804000      17.640000000000      29.400000000000
      1252    1       21.560000196000      15.680000196000      29.400000000000
      1253    1       23.520000000000      15.680000196000      27.440000196000
      1254    1       25.479999804000      17.640000000000      27.440000196000
      1255    1       23.520000000000      17.640000000000      29.400000000000
      1256    1       25.479999804000      15.680000196000      29.400000000000
      1257    1       27.440000196000      15.680000196000      27.440000196000
      1258    1       29.400000000000      17.640000000000      27.440000196000
      1259    2       27.440000196000      17.640000000000      29.400000000000
      1260    2       29.400000000000      15.680000196000      29.400000000000
      1261    2       31.359999804000      15.680000196000      27.440000196000
      1262    1       33.320000196000      17.640000000000      27.440000196000
      1263    2       31.359999804000      17.640000000000      29.400000000000
      1264    1       33.320000196000      15.680000196000      29.400000000000
      1265    1       35.280000000000      15.680000196000      27.440000196000
      1266    1       37.239999804000      17.640000000000      27.440000196000
      1267    2       35.280000000000      17.640000000000      29.400000000000
      1268    1       37.239999804000      15.680000196000      29.400000000000
      1269    2       39.200000196000      15.680000196000      27.440000196000
      1270    1       41.160000000000      17.640000000000      27.440000196000
      1271    1       39.200000196000      17.640000000000      29.400000000000
      1272    1       41.160000000000      15.680000196000      29.400000000000
      1273    2       43.119999804000      15.680000196000      27.440000196000
      1274    2       45.080000196000      17.640000000000      27.440000196000
      1275    2       43.119999804000      17.640000000000      29.400000000000
      1276    1       45.080000196000      15.680000196000      29.400000000000
      1277    1       47.040000000000      17.640000000000      29.400000000000
      1278    2        9.800000196000      21.560000196000      27.440000196000
      1279    2        9.800000196000      19.599999804000      29.400000000000
      1280    2       11.760000000000      19.599999804000      27.440000196000
      1281    1       13.719999804000      21.560000196000      27.440000196000
      1282    1       11.760000000000      21.560000196000      29.400000000000
      1283    1       13.719999804000      19.599999804000      29.400000000000
      1284    1       15.680000196000      19.599999804000      27.440000196000
      1285    1       17.640000000000      21.560000196000      27.440000196000
      1286    1       15.680000196000      21.560000196000      29.400000000000
      1287    2       17.640000000000      19.599999804000      29.400000000000
      1288    1       19.599999804000      19.599999804000      27.440000196000
      1289    2       21.560000196000      21.560000196000      27.440000196000
      1290    1       19.599999804000      21.560000196000      29.400000000000
      1291    1       21.560000196000      19.599999804000      29.400000000000
      1292    2       23.520000000000      19.599999804000      27.440000196000
      1293    2       25.479999804000      21.560000196000      27.440000196000
      1294    1       23.520000000000      21.560000196000      29.400000000000
      1295    1       25.479999804000      19.599999804000      29.400000000000
      1296    1       27.440000196000      19.599999804000      27.440000196000
      1297    2       29.400000000000      21.560000196000      27.440000196000
      1298    2       27.440000196000      21.560000196000      29.400000000000
      1299    1       29.400000000000      19.599999804000      29.400000000000
      1300    1       31.359999804000      19.599999804000      27.440000196000
      1301    2       33.320000196000      21.560000196000      27.440000196000
      1302    1       31.359999804000      21.560000196000      29.400000000000
      1303    2       33.320000196000      19.599999804000      29.400000000000
      1304    1       35.280000000000      19.599999804000      27.440000196000
      1305    1       37.239999804000      21.560000196000      27.440000196000
      1306    1       35.280000000000      21.560000196000      29.400000000000
      1307    1       37.239999804000      19.599999804000      29.400000000000
      1308    1       39.200000196000      19.599999804000      27.440000196000
      1309    1       41.160000000000      21.560000196000      27.440000196000
      1310    1       39.200000196000      21.560000196000      29.400000000000
      1311    1       41.160000000000      19.599999804000      29.400000000000
      1312    2       43.119999804000      19.599999804000      27.440000196000
      1313    2       45.080000196000      21.560000196000      27.440000196000
      1314    2       43.119999804000      21.560000196000      29.400000000000
      1315    1       45.080000196000      19.599999804000      29.400000000000
      1316    1       47.040000000000      19.599999804000      27.440000196000
      1317    1       48.999999804000      21.560000196000      27.440000196000
      1318    2       47.040000000000      21.560000196000      29.400000000000
      1319    2       48.999999804000      19.599999804000      29.400000000000
      1320    2        9.800000196000      25.479999804000      27.440000196000
      1321    2        7.839999804000      25.479999804000      29.400000000000
      1322    2        9.800000196000      23.520000000000      29.400000000000
      1323    1       11.760000000000      23.520000000000      27.440000196000
      1324    1       13.719999804000      25.479999804000      27.440000196000
      1325    2       11.760000000000      25.479999804000      29.400000000000
      1326    2       13.719999804000      23.520000000000      29.400000000000
      1327    1       15.680000196000      23.520000000000      27.440000196000
      1328    2       17.640000000000      25.479999804000      27.440000196000
      1329    2       15.680000196000      25.479999804000      29.400000000000
      1330    2       17.640000000000      23.520000000000      29.400000000000
      1331    2       19.599999804000      23.520000000000      27.440000196000
      1332    2       21.560000196000      25.479999804000      27.440000196000
      1333    1       19.599999804000      25.479999804000      29.400000000000
      1334    1       21.560000196000      23.520000000000      29.400000000000
      1335    1       23.520000000000      23.520000000000      27.440000196000
      1336    1       25.479999804000      25.479999804000      27.440000196000
      1337    2       23.520000000000      25.479999804000      29.400000000000
      1338    2       25.479999804000      23.520000000000      29.400000000000
      1339    2       27.440000196000      23.520000000000      27.440000196000
      1340    1       29.400000000000      25.479999804000      27.440000196000
      1341    1       27.440000196000      25.479999804000      29.400000000000
      1342    2       29.400000000000      23.520000000000      29.400000000000
      1343    2       31.359999804000      23.520000000000      27.440000196000
      1344    1       33.320000196000      25.479999804000      27.440000196000
      1345    1       31.359999804000      25.479999804000      29.400000000000
      1346    1       33.320000196000      23.520000000000      29.400000000000
      1347    2       35.280000000000      23.520000000000      27.440000196000
      1348    2       37.239999804000      25.479999804000      27.440000196000
      1349    1       35.280000000000      25.479999804000      29.400000000000
      1350    1       37.239999804000      23.520000000000      29.400000000000
      1351    1       39.200000196000      23.520000000000      27.440000196000
      1352    2       41.160000000000      25.479999804000      27.440000196000
      1353    1       39.200000196000      25.479999804000      29.400000000000
      1354    1       41.160000000000      23.520000000000      29.400000000000
      1355    2       43.119999804000      23.520000000000      27.440000196000
      1356    1       45.080000196000      25.479999804000      27.440000196000
      1357    2       43.119999804000      25.479999804000      29.400000000000
      1358    2       45.080000196000      23.520000000000      29.400000000000
      1359    2       47.040000000000      23.520000000000      27.440000196000
      1360    1       48.999999804000      25.479999804000      27.440000196000
      1361    2       47.040000000000      25.479999804000      29.400000000000
      1362    2       48.999999804000      23.520000000000      29.400000000000
      1363    2       50.960000196000      25.479999804000      29.400000000000
      1364    2        7.839999804000      27.440000196000      27.440000196000
      1365    2        9.800000196000      29.400000000000      27.440000196000
      1366    2        7.839999804000      29.400000000000      29.400000000000
      1367    2        9.800000196000      27.440000196000      29.400000000000
      1368    2       11.760000000000      27.440000196000      27.440000196000
      1369    2       13.719999804000      29.400000000000      27.440000196000
      1370    2       11.760000000000      29.400000000000      29.400000000000
      1371    2       13.719999804000      27.440000196000      29.400000000000
      1372    2       15.680000196000      27.440000196000      27.440000196000
      1373    2       17.640000000000      29.400000000000      27.440000196000
      1374    2       15.680000196000      29.400000000000      29.400000000000
      1375    2       17.640000000000      27.440000196000      29.400000000000
      1376    2       19.599999804000      27.440000196000      27.440000196000
      1377    2       21.560000196000      29.400000000000      27.440000196000
      1378    2       19.599999804000      29.400000000000      29.400000000000
      1379    2       21.560000196000      27.440000196000      29.400000000000
      1380    1       23.520000000000      27.440000196000      27.440000196000
      1381    2       25.479999804000      29.400000000000      27.440000196000
      1382    1       23.520000000000      29.400000000000      29.400000000000
      1383    2       25.479999804000      27.440000196000      29.400000000000
      1384    2       27.440000196000      27.440000196000      27.440000196000
      1385    2       29.400000000000      29.400000000000      27.440000196000
      1386    2       27.440000196000      29.400000000000      29.400000000000
      1387    2       29.400000000000      27.440000196000      29.400000000000
      1388    2       31.359999804000      27.440000196000      27.440000196000
      1389    2       33.320000196000      29.400000000000      27.440000196000
      1390    1       31.359999804000      29.400000000000      29.400000000000
      1391    1       33.320000196000      27.440000196000      29.400000000000
      1392    1       35.280000000000      27.440000196000      27.440000196000
      1393    1       37.239999804000      29.400000000000      27.440000196000
      1394    2       35.280000000000      29.400000000000      29.400000000000
      1395    2       37.239999804000      27.440000196000      29.400000000000
      1396    1       39.200000196000      27.440000196000      27.440000196000
      1397    1       41.160000000000      29.400000000000      27.440000196000
      1398    2       39.200000196000      29.400000000000      29.400000000000
      1399    2       41.160000000000      27.440000196000      29.400000000000
      1400    2       43.119999804000      27.440000196000      27.440000196000
      1401    1       45.080000196000      29.400000000000      27.440000196000
      1402    2       43.119999804000      29.400000000000      29.400000000000
      1403    2       45.080000196000      27.440000196000      29.400000000000
      1404    2       47.040000000000      27.440000196000      27.440000196000
      1405    1       48.999999804000      29.400000000000      27.440000196000
      1406    1       47.040000000000      29.400000000000      29.400000000000
      1407    1       48.999999804000      27.440000196000      29.400000000000
      1408    1       50.960000196000      27.440000196000      27.440000196000
      1409    1       50.960000196000      29.400000000000      29.400000000000
      1410    2        7.839999804000      31.359999804000      27.440000196000
      1411    1        9.800000196000      33.320000196000      27.440000196000
      1412    2        7.839999804000      33.320000196000      29.400000000000
      1413    1        9.800000196000      31.359999804000      29.400000000000
      1414    1       11.760000000000      31.359999804000      27.440000196000
      1415    2       13.719999804000      33.320000196000      27.440000196000
      1416    2       11.760000000000      33.320000196000      29.400000000000
      1417    1       13.719999804000      31.359999804000      29.400000000000
      1418    2       15.680000196000      31.359999804000      27.440000196000
      1419    1       17.640000000000      33.320000196000      27.440000196000
      1420    1       15.680000196000      33.320000196000      29.400000000000
      1421    1       17.640000000000      31.359999804000      29.400000000000
      1422    2       19.599999804000      31.359999804000      27.440000196000
      1423    1       21.560000196000      33.320000196000      27.440000196000
      1424    1       19.599999804000      33.320000196000      29.400000000000
      1425    1       21.560000196000      31.359999804000      29.400000000000
      1426    1       23.520000000000      31.359999804000      27.440000196000
      1427    1       25.479999804000      33.320000196000      27.440000196000
      1428    1       23.520000000000      33.320000196000      29.400000000000
      1429    2       25.479999804000      31.359999804000      29.400000000000
      1430    1       27.440000196000      31.359999804000      27.440000196000
      1431    1       29.400000000000      33.320000196000      27.440000196000
      1432    1       27.440000196000      33.320000196000      29.400000000000
      1433    1       29.400000000000      31.359999804000      29.400000000000
      1434    2       31.359999804000      31.359999804000      27.440000196000
      1435    1       33.320000196000      33.320000196000      27.440000196000
      1436    2       31.359999804000      33.320000196000      29.400000000000
      1437    2       33.320000196000      31.359999804000      29.400000000000
      1438    2       35.280000000000      31.359999804000      27.440000196000
      1439    1       37.239999804000      33.320000196000      27.440000196000
      1440    2       35.280000000000      33.320000196000      29.400000000000
      1441    1       37.239999804000      31.359999804000      29.400000000000
      1442    1       39.200000196000      31.359999804000      27.440000196000
      1443    1       41.160000000000      33.320000196000      27.440000196000
      1444    1       39.200000196000      33.320000196000      29.400000000000
      1445    2       41.160000000000      31.359999804000      29.400000000000
      1446    1       43.119999804000      31.359999804000      27.440000196000
      1447    1       45.080000196000      33.320000196000      27.440000196000
      1448    1       43.119999804000      33.320000196000      29.400000000000
      1449    2       45.080000196000      31.359999804000      29.400000000000
      1450    1       47.040000000000      31.359999804000      27.440000196000
      1451    2       48.999999804000      33.320000196000      27.440000196000
      1452    1       47.040000000000      33.320000196000      29.400000000000
      1453    1       48.999999804000      31.359999804000      29.400000000000
      1454    1       50.960000196000      31.359999804000      27.440000196000
      1455    1       50.960000196000      33.320000196000      29.400000000000
      1456    1        9.800000196000      37.239999804000      27.440000196000
      1457    1        9.800000196000      35.280000000000      29.400000000000
      1458    1       11.760000000000      35.280000000000      27.440000196000
      1459    2       13.719999804000      37.239999804000      27.440000196000
      1460    1       11.760000000000      37.239999804000      29.400000000000
      1461    2       13.719999804000      35.280000000000      29.400000000000
      1462    1       15.680000196000      35.280000000000      27.440000196000
      1463    2       17.640000000000      37.239999804000      27.440000196000
      1464    2       15.680000196000      37.239999804000      29.400000000000
      1465    2       17.640000000000      35.280000000000      29.400000000000
      1466    1       19.599999804000      35.280000000000      27.440000196000
      1467    2       21.560000196000      37.239999804000      27.440000196000
      1468    2       19.599999804000      37.239999804000      29.400000000000
      1469    1       21.560000196000      35.280000000000      29.400000000000
      1470    2       23.520000000000      35.280000000000      27.440000196000
      1471    1       25.479999804000      37.239999804000      27.440000196000
      1472    1       23.520000000000      37.239999804000      29.400000000000
      1473    1       25.479999804000      35.280000000000      29.400000000000
      1474    1       27.440000196000      35.280000000000      27.440000196000
      1475    1       29.400000000000      37.239999804000      27.440000196000
      1476    1       27.440000196000      37.239999804000      29.400000000000
      1477    1       29.400000000000      35.280000000000      29.400000000000
      1478    1       31.359999804000      35.280000000000      27.440000196000
      1479    1       33.320000196000      37.239999804000      27.440000196000
      1480    1       31.359999804000      37.239999804000      29.400000000000
      1481    1       33.320000196000      35.280000000000      29.400000000000
      1482    2       35.280000000000      35.280000000000      27.440000196000
      1483    2       37.239999804000      37.239999804000      27.440000196000
      1484    1       35.280000000000      37.239999804000      29.400000000000
      1485    1       37.239999804000      35.280000000000      29.400000000000
      1486    1       39.200000196000      35.280000000000      27.440000196000
      1487    2       41.160000000000      37.239999804000      27.440000196000
      1488    2       39.200000196000      37.239999804000      29.400000000000
      1489    2       41.160000000000      35.280000000000      29.400000000000
      1490    2       43.119999804000      35.280000000000      27.440000196000
      1491    2       45.080000196000      37.239999804000      27.440000196000
      1492    2       43.119999804000      37.239999804000      29.400000000000
      1493    2       45.080000196000      35.280000000000      29.400000000000
      1494    1       47.040000000000      35.280000000000      27.440000196000
      1495    2       48.999999804000      37.239999804000      27.440000196000
      1496    1       47.040000000000      37.239999804000      29.400000000000
      1497    1       48.999999804000      35.280000000000      29.400000000000
      1498    2        9.800000196000      39.200000196000      29.400000000000
      1499    1       11.760000000000      39.200000196000      27.440000196000
      1500    2       13.719999804000      41.160000000000      27.440000196000
      1501    2       11.760000000000      41.160000000000      29.400000000000
      1502    2       13.719999804000      39.200000196000      29.400000000000
      1503    2       15.680000196000      39.200000196000      27.440000196000
      1504    1       17.640000000000      41.160000000000      27.440000196000
      1505    1       15.680000196000      41.160000000000      29.400000000000
      1506    1       17.640000000000      39.200000196000      29.400000000000
      1507    1       19.599999804000      39.200000196000      27.440000196000
      1508    1       21.560000196000      41.160000000000      27.440000196000
      1509    1       19.599999804000      41.160000000000      29.400000000000
      1510    1       21.560000196000      39.200000196000      29.400000000000
      1511    1       23.520000000000      39.200000196000      27.440000196000
      1512    2       25.479999804000      41.160000000000      27.440000196000
      1513    1       23.520000000000      41.160000000000      29.400000000000
      1514    1       25.479999804000      39.200000196000      29.400000000000
      1515    1       27.440000196000      39.200000196000      27.440000196000
      1516    1       29.400000000000      41.160000000000      27.440000196000
      1517    2       27.440000196000      41.160000000000      29.400000000000
      1518    2       29.400000000000      39.200000196000      29.400000000000
      1519    2       31.359999804000      39.200000196000      27.440000196000
      1520    2       33.320000196000      41.160000000000      27.440000196000
      1521    2       31.359999804000      41.160000000000      29.400000000000
      1522    1       33.320000196000      39.200000196000      29.400000000000
      1523    2       35.280000000000      39.200000196000      27.440000196000
      1524    2       37.239999804000      41.160000000000      27.440000196000
      1525    1       35.280000000000      41.160000000000      29.400000000000
      1526    1       37.239999804000      39.200000196000      29.400000000000
      1527    2       39.200000196000      39.200000196000      27.440000196000
      1528    2       41.160000000000      41.160000000000      27.440000196000
      1529    2       39.200000196000      41.160000000000      29.400000000000
      1530    2       41.160000000000      39.200000196000      29.400000000000
      1531    2       43.119999804000      39.200000196000      27.440000196000
      1532    2       45.080000196000      41.160000000000      27.440000196000
      1533    1       43.119999804000      41.160000000000      29.400000000000
      1534    1       45.080000196000      39.200000196000      29.400000000000
      1535    2       47.040000000000      39.200000196000      27.440000196000
      1536    1       47.040000000000      41.160000000000      29.400000000000
      1537    1       48.999999804000      39.200000196000      29.400000000000
      1538    2       13.719999804000      43.119999804000      29.400000000000
      1539    2       15.680000196000      43.119999804000      27.440000196000
      1540    1       17.640000000000      45.080000196000      27.440000196000
      1541    2       15.680000196000      45.080000196000      29.400000000000
      1542    1       17.640000000000      43.119999804000      29.400000000000
      1543    2       19.599999804000      43.119999804000      27.440000196000
      1544    1       21.560000196000      45.080000196000      27.440000196000
      1545    1       19.599999804000      45.080000196000      29.400000000000
      1546    1       21.560000196000      43.119999804000      29.400000000000
      1547    2       23.520000000000      43.119999804000      27.440000196000
      1548    2       25.479999804000      45.080000196000      27.440000196000
      1549    2       23.520000000000      45.080000196000      29.400000000000
      1550    1       25.479999804000      43.119999804000      29.400000000000
      1551    1       27.440000196000      43.119999804000      27.440000196000
      1552    2       29.400000000000      45.080000196000      27.440000196000
      1553    1       27.440000196000      45.080000196000      29.400000000000
      1554    2       29.400000000000      43.119999804000      29.400000000000
      1555    1       31.359999804000      43.119999804000      27.440000196000
      1556    1       33.320000196000      45.080000196000      27.440000196000
      1557    1       31.359999804000      45.080000196000      29.400000000000
      1558    2       33.320000196000      43.119999804000      29.400000000000
      1559    2       35.280000000000      43.119999804000      27.440000196000
      1560    1       37.239999804000      45.080000196000      27.440000196000
      1561    1       35.280000000000      45.080000196000      29.400000000000
      1562    2       37.239999804000      43.119999804000      29.400000000000
      1563    2       39.200000196000      43.119999804000      27.440000196000
      1564    2       41.160000000000      45.080000196000      27.440000196000
      1565    2       39.200000196000      45.080000196000      29.400000000000
      1566    2       41.160000000000      43.119999804000      29.400000000000
      1567    2       43.119999804000      43.119999804000      27.440000196000
      1568    2       43.119999804000      45.080000196000      29.400000000000
      1569    1       45.080000196000      43.119999804000      29.400000000000
      1570    1       17.640000000000      47.040000000000      29.400000000000
      1571    2       19.599999804000      47.040000000000      27.440000196000
      1572    2       21.560000196000      48.999999804000      27.440000196000
      1573    1       19.599999804000      48.999999804000      29.400000000000
      1574    1       21.560000196000      47.040000000000      29.400000000000
      1575    1       23.520000000000      47.040000000000      27.440000196000
      1576    2       25.479999804000      48.999999804000      27.440000196000
      1577    2       23.520000000000      48.999999804000      29.400000000000
      1578    1       25.479999804000      47.040000000000      29.400000000000
      1579    1       27.440000196000      47.040000000000      27.440000196000
      1580    2       29.400000000000      48.999999804000      27.440000196000
      1581    1       27.440000196000      48.999999804000      29.400000000000
      1582    1       29.400000000000      47.040000000000      29.400000000000
      1583    1       31.359999804000      47.040000000000      27.440000196000
      1584    1       33.320000196000      48.999999804000      27.440000196000
      1585    2       31.359999804000      48.999999804000      29.400000000000
      1586    2       33.320000196000      47.040000000000      29.400000000000
      1587    1       35.280000000000      47.040000000000      27.440000196000
      1588    2       37.239999804000      48.999999804000      27.440000196000
      1589    2       35.280000000000      48.999999804000      29.400000000000
      1590    2       37.239999804000      47.040000000000      29.400000000000
      1591    1       39.200000196000      47.040000000000      27.440000196000
      1592    1       39.200000196000      48.999999804000      29.400000000000
      1593    2       41.160000000000      47.040000000000      29.400000000000
      1594    1       25.479999804000      50.960000196000      29.400000000000
      1595    2       27.440000196000      50.960000196000      27.440000196000
      1596    2       29.400000000000      50.960000196000      29.400000000000
      1597    1       31.359999804000      50.960000196000      27.440000196000
      1598    2       33.320000196000      50.960000196000      29.400000000000
      1599    2       21.560000196000       9.800000196000      31.359999804000
      1600    2       25.479999804000       9.800000196000      31.359999804000
      1601    2       23.520000000000       9.800000196000      33.320000196000
      1602    1       27.440000196000       7.839999804000      31.359999804000
      1603    2       29.400000000000       9.800000196000      31.359999804000
      1604    2       27.440000196000       9.800000196000      33.320000196000
      1605    2       29.400000000000       7.839999804000      33.320000196000
      1606    2       31.359999804000       7.839999804000      31.359999804000
      1607    2       33.320000196000       9.800000196000      31.359999804000
      1608    2       31.359999804000       9.800000196000      33.320000196000
      1609    1       37.239999804000       9.800000196000      31.359999804000
      1610    1       35.280000000000       9.800000196000      33.320000196000
      1611    2       17.640000000000      13.719999804000      31.359999804000
      1612    1       15.680000196000      13.719999804000      33.320000196000
      1613    1       17.640000000000      11.760000000000      33.320000196000
      1614    2       19.599999804000      11.760000000000      31.359999804000
      1615    1       21.560000196000      13.719999804000      31.359999804000
      1616    1       19.599999804000      13.719999804000      33.320000196000
      1617    1       21.560000196000      11.760000000000      33.320000196000
      1618    2       23.520000000000      11.760000000000      31.359999804000
      1619    2       25.479999804000      13.719999804000      31.359999804000
      1620    1       23.520000000000      13.719999804000      33.320000196000
      1621    1       25.479999804000      11.760000000000      33.320000196000
      1622    2       27.440000196000      11.760000000000      31.359999804000
      1623    1       29.400000000000      13.719999804000      31.359999804000
      1624    1       27.440000196000      13.719999804000      33.320000196000
      1625    2       29.400000000000      11.760000000000      33.320000196000
      1626    2       31.359999804000      11.760000000000      31.359999804000
      1627    1       33.320000196000      13.719999804000      31.359999804000
      1628    2       31.359999804000      13.719999804000      33.320000196000
      1629    2       33.320000196000      11.760000000000      33.320000196000
      1630    2       35.280000000000      11.760000000000      31.359999804000
      1631    2       37.239999804000      13.719999804000      31.359999804000
      1632    2       35.280000000000      13.719999804000      33.320000196000
      1633    2       37.239999804000      11.760000000000      33.320000196000
      1634    2       39.200000196000      11.760000000000      31.359999804000
      1635    2       41.160000000000      13.719999804000      31.359999804000
      1636    1       39.200000196000      13.719999804000      33.320000196000
      1637    1       41.160000000000      11.760000000000      33.320000196000
      1638    2       43.119999804000      13.719999804000      33.320000196000
      1639    1       13.719999804000      17.640000000000      31.359999804000
      1640    2       11.760000000000      17.640000000000      33.320000196000
      1641    1       13.719999804000      15.680000196000      33.320000196000
      1642    1       15.680000196000      15.680000196000      31.359999804000
      1643    1       17.640000000000      17.640000000000      31.359999804000
      1644    1       15.680000196000      17.640000000000      33.320000196000
      1645    1       17.640000000000      15.680000196000      33.320000196000
      1646    1       19.599999804000      15.680000196000      31.359999804000
      1647    1       21.560000196000      17.640000000000      31.359999804000
      1648    2       19.599999804000      17.640000000000      33.320000196000
      1649    2       21.560000196000      15.680000196000      33.320000196000
      1650    2       23.520000000000      15.680000196000      31.359999804000
      1651    1       25.479999804000      17.640000000000      31.359999804000
      1652    1       23.520000000000      17.640000000000      33.320000196000
      1653    1       25.479999804000      15.680000196000      33.320000196000
      1654    1       27.440000196000      15.680000196000      31.359999804000
      1655    2       29.400000000000      17.640000000000      31.359999804000
      1656    1       27.440000196000      17.640000000000      33.320000196000
      1657    1       29.400000000000      15.680000196000      33.320000196000
      1658    1       31.359999804000      15.680000196000      31.359999804000
      1659    1       33.320000196000      17.640000000000      31.359999804000
      1660    1       31.359999804000      17.640000000000      33.320000196000
      1661    2       33.320000196000      15.680000196000      33.320000196000
      1662    2       35.280000000000      15.680000196000      31.359999804000
      1663    2       37.239999804000      17.640000000000      31.359999804000
      1664    2       35.280000000000      17.640000000000      33.320000196000
      1665    2       37.239999804000      15.680000196000      33.320000196000
      1666    1       39.200000196000      15.680000196000      31.359999804000
      1667    2       41.160000000000      17.640000000000      31.359999804000
      1668    2       39.200000196000      17.640000000000      33.320000196000
      1669    2       41.160000000000      15.680000196000      33.320000196000
      1670    2       43.119999804000      15.680000196000      31.359999804000
      1671    2       45.080000196000      17.640000000000      31.359999804000
      1672    1       43.119999804000      17.640000000000      33.320000196000
      1673    1       45.080000196000      15.680000196000      33.320000196000
      1674    2       47.040000000000      17.640000000000      33.320000196000
      1675    2        9.800000196000      21.560000196000      31.359999804000
      1676    2       11.760000000000      19.599999804000      31.359999804000
      1677    2       13.719999804000      21.560000196000      31.359999804000
      1678    2       11.760000000000      21.560000196000      33.320000196000
      1679    2       13.719999804000      19.599999804000      33.320000196000
      1680    2       15.680000196000      19.599999804000      31.359999804000
      1681    1       17.640000000000      21.560000196000      31.359999804000
      1682    2       15.680000196000      21.560000196000      33.320000196000
      1683    1       17.640000000000      19.599999804000      33.320000196000
      1684    1       19.599999804000      19.599999804000      31.359999804000
      1685    1       21.560000196000      21.560000196000      31.359999804000
      1686    1       19.599999804000      21.560000196000      33.320000196000
      1687    2       21.560000196000      19.599999804000      33.320000196000
      1688    1       23.520000000000      19.599999804000      31.359999804000
      1689    1       25.479999804000      21.560000196000      31.359999804000
      1690    1       23.520000000000      21.560000196000      33.320000196000
      1691    1       25.479999804000      19.599999804000      33.320000196000
      1692    1       27.440000196000      19.599999804000      31.359999804000
      1693    2       29.400000000000      21.560000196000      31.359999804000
      1694    2       27.440000196000      21.560000196000      33.320000196000
      1695    2       29.400000000000      19.599999804000      33.320000196000
      1696    2       31.359999804000      19.599999804000      31.359999804000
      1697    1       33.320000196000      21.560000196000      31.359999804000
      1698    2       31.359999804000      21.560000196000      33.320000196000
      1699    1       33.320000196000      19.599999804000      33.320000196000
      1700    1       35.280000000000      19.599999804000      31.359999804000
      1701    2       37.239999804000      21.560000196000      31.359999804000
      1702    2       35.280000000000      21.560000196000      33.320000196000
      1703    2       37.239999804000      19.599999804000      33.320000196000
      1704    1       39.200000196000      19.599999804000      31.359999804000
      1705    2       41.160000000000      21.560000196000      31.359999804000
      1706    2       39.200000196000      21.560000196000      33.320000196000
      1707    2       41.160000000000      19.599999804000      33.320000196000
      1708    2       43.119999804000      19.599999804000      31.359999804000
      1709    2       45.080000196000      21.560000196000      31.359999804000
      1710    2       43.119999804000      21.560000196000      33.320000196000
      1711    2       45.080000196000      19.599999804000      33.320000196000
      1712    2       47.040000000000      19.599999804000      31.359999804000
      1713    2       48.999999804000      21.560000196000      31.359999804000
      1714    2       47.040000000000      21.560000196000      33.320000196000
      1715    2        9.800000196000      25.479999804000      31.359999804000
      1716    2        9.800000196000      23.520000000000      33.320000196000
      1717    2       11.760000000000      23.520000000000      31.359999804000
      1718    2       13.719999804000      25.479999804000      31.359999804000
      1719    2       11.760000000000      25.479999804000      33.320000196000
      1720    2       13.719999804000      23.520000000000      33.320000196000
      1721    2       15.680000196000      23.520000000000      31.359999804000
      1722    2       17.640000000000      25.479999804000      31.359999804000
      1723    1       15.680000196000      25.479999804000      33.320000196000
      1724    1       17.640000000000      23.520000000000      33.320000196000
      1725    1       19.599999804000      23.520000000000      31.359999804000
      1726    1       21.560000196000      25.479999804000      31.359999804000
      1727    2       19.599999804000      25.479999804000      33.320000196000
      1728    2       21.560000196000      23.520000000000      33.320000196000
      1729    1       23.520000000000      23.520000000000      31.359999804000
      1730    2       25.479999804000      25.479999804000      31.359999804000
      1731    2       23.520000000000      25.479999804000      33.320000196000
      1732    1       25.479999804000      23.520000000000      33.320000196000
      1733    1       27.440000196000      23.520000000000      31.359999804000
      1734    1       29.400000000000      25.479999804000      31.359999804000
      1735    1       27.440000196000      25.479999804000      33.320000196000
      1736    1       29.400000000000      23.520000000000      33.320000196000
      1737    2       31.359999804000      23.520000000000      31.359999804000
      1738    1       33.320000196000      25.479999804000      31.359999804000
      1739    1       31.359999804000      25.479999804000      33.320000196000
      1740    1       33.320000196000      23.520000000000      33.320000196000
      1741    1       35.280000000000      23.520000000000      31.359999804000
      1742    2       37.239999804000      25.479999804000      31.359999804000
      1743    2       35.280000000000      25.479999804000      33.320000196000
      1744    2       37.239999804000      23.520000000000      33.320000196000
      1745    2       39.200000196000      23.520000000000      31.359999804000
      1746    1       41.160000000000      25.479999804000      31.359999804000
      1747    1       39.200000196000      25.479999804000      33.320000196000
      1748    2       41.160000000000      23.520000000000      33.320000196000
      1749    2       43.119999804000      23.520000000000      31.359999804000
      1750    2       45.080000196000      25.479999804000      31.359999804000
      1751    2       43.119999804000      25.479999804000      33.320000196000
      1752    2       45.080000196000      23.520000000000      33.320000196000
      1753    2       47.040000000000      23.520000000000      31.359999804000
      1754    2       48.999999804000      25.479999804000      31.359999804000
      1755    1       47.040000000000      25.479999804000      33.320000196000
      1756    1       48.999999804000      23.520000000000      33.320000196000
      1757    1        7.839999804000      27.440000196000      31.359999804000
      1758    1        9.800000196000      29.400000000000      31.359999804000
      1759    2        7.839999804000      29.400000000000      33.320000196000
      1760    2        9.800000196000      27.440000196000      33.320000196000
      1761    2       11.760000000000      27.440000196000      31.359999804000
      1762    2       13.719999804000      29.400000000000      31.359999804000
      1763    1       11.760000000000      29.400000000000      33.320000196000
      1764    1       13.719999804000      27.440000196000      33.320000196000
      1765    1       15.680000196000      27.440000196000      31.359999804000
      1766    1       17.640000000000      29.400000000000      31.359999804000
      1767    2       15.680000196000      29.400000000000      33.320000196000
      1768    2       17.640000000000      27.440000196000      33.320000196000
      1769    1       19.599999804000      27.440000196000      31.359999804000
      1770    1       21.560000196000      29.400000000000      31.359999804000
      1771    2       19.599999804000      29.400000000000      33.320000196000
      1772    2       21.560000196000      27.440000196000      33.320000196000
      1773    2       23.520000000000      27.440000196000      31.359999804000
      1774    2       25.479999804000      29.400000000000      31.359999804000
      1775    1       23.520000000000      29.400000000000      33.320000196000
      1776    1       25.479999804000      27.440000196000      33.320000196000
      1777    1       27.440000196000      27.440000196000      31.359999804000
      1778    1       29.400000000000      29.400000000000      31.359999804000
      1779    1       27.440000196000      29.400000000000      33.320000196000
      1780    1       29.400000000000      27.440000196000      33.320000196000
      1781    2       31.359999804000      27.440000196000      31.359999804000
      1782    1       33.320000196000      29.400000000000      31.359999804000
      1783    1       31.359999804000      29.400000000000      33.320000196000
      1784    2       33.320000196000      27.440000196000      33.320000196000
      1785    1       35.280000000000      27.440000196000      31.359999804000
      1786    1       37.239999804000      29.400000000000      31.359999804000
      1787    1       35.280000000000      29.400000000000      33.320000196000
      1788    2       37.239999804000      27.440000196000      33.320000196000
      1789    2       39.200000196000      27.440000196000      31.359999804000
      1790    2       41.160000000000      29.400000000000      31.359999804000
      1791    1       39.200000196000      29.400000000000      33.320000196000
      1792    1       41.160000000000      27.440000196000      33.320000196000
      1793    1       43.119999804000      27.440000196000      31.359999804000
      1794    1       45.080000196000      29.400000000000      31.359999804000
      1795    1       43.119999804000      29.400000000000      33.320000196000
      1796    1       45.080000196000      27.440000196000      33.320000196000
      1797    1       47.040000000000      27.440000196000      31.359999804000
      1798    1       48.999999804000      29.400000000000      31.359999804000
      1799    1       47.040000000000      29.400000000000      33.320000196000
      1800    2       48.999999804000      27.440000196000      33.320000196000
      1801    2       50.960000196000      27.440000196000      31.359999804000
      1802    1       50.960000196000      29.400000000000      33.320000196000
      1803    2        7.839999804000      31.359999804000      31.359999804000
      1804    2        9.800000196000      33.320000196000      31.359999804000
      1805    2        9.800000196000      31.359999804000      33.320000196000
      1806    1       11.760000000000      31.359999804000      31.359999804000
      1807    2       13.719999804000      33.320000196000      31.359999804000
      1808    1       11.760000000000      33.320000196000      33.320000196000
      1809    2       13.719999804000      31.359999804000      33.320000196000
      1810    1       15.680000196000      31.359999804000      31.359999804000
      1811    1       17.640000000000      33.320000196000      31.359999804000
      1812    2       15.680000196000      33.320000196000      33.320000196000
      1813    2       17.640000000000      31.359999804000      33.320000196000
      1814    2       19.599999804000      31.359999804000      31.359999804000
      1815    1       21.560000196000      33.320000196000      31.359999804000
      1816    2       19.599999804000      33.320000196000      33.320000196000
      1817    1       21.560000196000      31.359999804000      33.320000196000
      1818    1       23.520000000000      31.359999804000      31.359999804000
      1819    1       25.479999804000      33.320000196000      31.359999804000
      1820    1       23.520000000000      33.320000196000      33.320000196000
      1821    2       25.479999804000      31.359999804000      33.320000196000
      1822    2       27.440000196000      31.359999804000      31.359999804000
      1823    1       29.400000000000      33.320000196000      31.359999804000
      1824    1       27.440000196000      33.320000196000      33.320000196000
      1825    1       29.400000000000      31.359999804000      33.320000196000
      1826    2       31.359999804000      31.359999804000      31.359999804000
      1827    1       33.320000196000      33.320000196000      31.359999804000
      1828    2       31.359999804000      33.320000196000      33.320000196000
      1829    1       33.320000196000      31.359999804000      33.320000196000
      1830    1       35.280000000000      31.359999804000      31.359999804000
      1831    1       37.239999804000      33.320000196000      31.359999804000
      1832    2       35.280000000000      33.320000196000      33.320000196000
      1833    2       37.239999804000      31.359999804000      33.320000196000
      1834    1       39.200000196000      31.359999804000      31.359999804000
      1835    1       41.160000000000      33.320000196000      31.359999804000
      1836    1       39.200000196000      33.320000196000      33.320000196000
      1837    2       41.160000000000      31.359999804000      33.320000196000
      1838    2       43.119999804000      31.359999804000      31.359999804000
      1839    2       45.080000196000      33.320000196000      31.359999804000
      1840    1       43.119999804000      33.320000196000      33.320000196000
      1841    2       45.080000196000      31.359999804000      33.320000196000
      1842    1       47.040000000000      31.359999804000      31.359999804000
      1843    2       48.999999804000      33.320000196000      31.359999804000
      1844    1       47.040000000000      33.320000196000      33.320000196000
      1845    1       48.999999804000      31.359999804000      33.320000196000
      1846    1       50.960000196000      31.359999804000      31.359999804000
      1847    1        9.800000196000      37.239999804000      31.359999804000
      1848    1        9.800000196000      35.280000000000      33.320000196000
      1849    2       11.760000000000      35.280000000000      31.359999804000
      1850    2       13.719999804000      37.239999804000      31.359999804000
      1851    2       11.760000000000      37.239999804000      33.320000196000
      1852    1       13.719999804000      35.280000000000      33.320000196000
      1853    1       15.680000196000      35.280000000000      31.359999804000
      1854    1       17.640000000000      37.239999804000      31.359999804000
      1855    1       15.680000196000      37.239999804000      33.320000196000
      1856    1       17.640000000000      35.280000000000      33.320000196000
      1857    1       19.599999804000      35.280000000000      31.359999804000
      1858    2       21.560000196000      37.239999804000      31.359999804000
      1859    1       19.599999804000      37.239999804000      33.320000196000
      1860    2       21.560000196000      35.280000000000      33.320000196000
      1861    2       23.520000000000      35.280000000000      31.359999804000
      1862    2       25.479999804000      37.239999804000      31.359999804000
      1863    2       23.520000000000      37.239999804000      33.320000196000
      1864    2       25.479999804000      35.280000000000      33.320000196000
      1865    2       27.440000196000      35.280000000000      31.359999804000
      1866    2       29.400000000000      37.239999804000      31.359999804000
      1867    2       27.440000196000      37.239999804000      33.320000196000
      1868    2       29.400000000000      35.280000000000      33.320000196000
      1869    1       31.359999804000      35.280000000000      31.359999804000
      1870    2       33.320000196000      37.239999804000      31.359999804000
      1871    1       31.359999804000      37.239999804000      33.320000196000
      1872    1       33.320000196000      35.280000000000      33.320000196000
      1873    2       35.280000000000      35.280000000000      31.359999804000
      1874    2       37.239999804000      37.239999804000      31.359999804000
      1875    2       35.280000000000      37.239999804000      33.320000196000
      1876    2       37.239999804000      35.280000000000      33.320000196000
      1877    1       39.200000196000      35.280000000000      31.359999804000
      1878    2       41.160000000000      37.239999804000      31.359999804000
      1879    1       39.200000196000      37.239999804000      33.320000196000
      1880    2       41.160000000000      35.280000000000      33.320000196000
      1881    1       43.119999804000      35.280000000000      31.359999804000
      1882    2       45.080000196000      37.239999804000      31.359999804000
      1883    2       43.119999804000      37.239999804000      33.320000196000
      1884    2       45.080000196000      35.280000000000      33.320000196000
      1885    1       47.040000000000      35.280000000000      31.359999804000
      1886    1       48.999999804000      37.239999804000      31.359999804000
      1887    2       47.040000000000      37.239999804000      33.320000196000
      1888    2       48.999999804000      35.280000000000      33.320000196000
      1889    2       11.760000000000      39.200000196000      31.359999804000
      1890    2       13.719999804000      41.160000000000      31.359999804000
      1891    2       11.760000000000      41.160000000000      33.320000196000
      1892    1       13.719999804000      39.200000196000      33.320000196000
      1893    2       15.680000196000      39.200000196000      31.359999804000
      1894    2       17.640000000000      41.160000000000      31.359999804000
      1895    1       15.680000196000      41.160000000000      33.320000196000
      1896    1       17.640000000000      39.200000196000      33.320000196000
      1897    2       19.599999804000      39.200000196000      31.359999804000
      1898    1       21.560000196000      41.160000000000      31.359999804000
      1899    1       19.599999804000      41.160000000000      33.320000196000
      1900    2       21.560000196000      39.200000196000      33.320000196000
      1901    2       23.520000000000      39.200000196000      31.359999804000
      1902    2       25.479999804000      41.160000000000      31.359999804000
      1903    2       23.520000000000      41.160000000000      33.320000196000
      1904    1       25.479999804000      39.200000196000      33.320000196000
      1905    2       27.440000196000      39.200000196000      31.359999804000
      1906    2       29.400000000000      41.160000000000      31.359999804000
      1907    2       27.440000196000      41.160000000000      33.320000196000
      1908    2       29.400000000000      39.200000196000      33.320000196000
      1909    2       31.359999804000      39.200000196000      31.359999804000
      1910    2       33.320000196000      41.160000000000      31.359999804000
      1911    1       31.359999804000      41.160000000000      33.320000196000
      1912    1       33.320000196000      39.200000196000      33.320000196000
      1913    1       35.280000000000      39.200000196000      31.359999804000
      1914    2       37.239999804000      41.160000000000      31.359999804000
      1915    2       35.280000000000      41.160000000000      33.320000196000
      1916    2       37.239999804000      39.200000196000      33.320000196000
      1917    2       39.200000196000      39.200000196000      31.359999804000
      1918    2       41.160000000000      41.160000000000      31.359999804000
      1919    1       39.200000196000      41.160000000000      33.320000196000
      1920    1       41.160000000000      39.200000196000      33.320000196000
      1921    1       43.119999804000      39.200000196000      31.359999804000
      1922    2       45.080000196000      41.160000000000      31.359999804000
      1923    1       43.119999804000      41.160000000000      33.320000196000
      1924    1       45.080000196000      39.200000196000      33.320000196000
      1925    2       47.040000000000      39.200000196000      31.359999804000
      1926    1       47.040000000000      41.160000000000      33.320000196000
      1927    2       13.719999804000      43.119999804000      33.320000196000
      1928    1       15.680000196000      43.119999804000      31.359999804000
      1929    1       17.640000000000      45.080000196000      31.359999804000
      1930    1       15.680000196000      45.080000196000      33.320000196000
      1931    1       17.640000000000      43.119999804000      33.320000196000
      1932    2       19.599999804000      43.119999804000      31.359999804000
      1933    1       21.560000196000      45.080000196000      31.359999804000
      1934    1       19.599999804000      45.080000196000      33.320000196000
      1935    2       21.560000196000      43.119999804000      33.320000196000
      1936    2       23.520000000000      43.119999804000      31.359999804000
      1937    2       25.479999804000      45.080000196000      31.359999804000
      1938    1       23.520000000000      45.080000196000      33.320000196000
      1939    1       25.479999804000      43.119999804000      33.320000196000
      1940    1       27.440000196000      43.119999804000      31.359999804000
      1941    1       29.400000000000      45.080000196000      31.359999804000
      1942    1       27.440000196000      45.080000196000      33.320000196000
      1943    1       29.400000000000      43.119999804000      33.320000196000
      1944    2       31.359999804000      43.119999804000      31.359999804000
      1945    1       33.320000196000      45.080000196000      31.359999804000
      1946    1       31.359999804000      45.080000196000      33.320000196000
      1947    1       33.320000196000      43.119999804000      33.320000196000
      1948    1       35.280000000000      43.119999804000      31.359999804000
      1949    2       37.239999804000      45.080000196000      31.359999804000
      1950    2       35.280000000000      45.080000196000      33.320000196000
      1951    2       37.239999804000      43.119999804000      33.320000196000
      1952    1       39.200000196000      43.119999804000      31.359999804000
      1953    2       41.160000000000      45.080000196000      31.359999804000
      1954    2       39.200000196000      45.080000196000      33.320000196000
      1955    2       41.160000000000      43.119999804000      33.320000196000
      1956    2       43.119999804000      43.119999804000      31.359999804000
      1957    2       43.119999804000      45.080000196000      33.320000196000
      1958    1       45.080000196000      43.119999804000      33.320000196000
      1959    2       17.640000000000      47.040000000000      33.320000196000
      1960    1       19.599999804000      47.040000000000      31.359999804000
      1961    1       21.560000196000      48.999999804000      31.359999804000
      1962    2       21.560000196000      47.040000000000      33.320000196000
      1963    2       23.520000000000      47.040000000000      31.359999804000
      1964    1       25.479999804000      48.999999804000      31.359999804000
      1965    1       23.520000000000      48.999999804000      33.320000196000
      1966    1       25.479999804000      47.040000000000      33.320000196000
      1967    1       27.440000196000      47.040000000000      31.359999804000
      1968    1       29.400000000000      48.999999804000      31.359999804000
      1969    2       27.440000196000      48.999999804000      33.320000196000
      1970    1       29.400000000000      47.040000000000      33.320000196000
      1971    1       31.359999804000      47.040000000000      31.359999804000
      1972    1       33.320000196000      48.999999804000      31.359999804000
      1973    1       31.359999804000      48.999999804000      33.320000196000
      1974    1       33.320000196000      47.040000000000      33.320000196000
      1975    1       35.280000000000      47.040000000000      31.359999804000
      1976    1       37.239999804000      48.999999804000      31.359999804000
      1977    2       35.280000000000      48.999999804000      33.320000196000
      1978    2       37.239999804000      47.040000000000      33.320000196000
      1979    1       39.200000196000      47.040000000000      31.359999804000
      1980    2       41.160000000000      47.040000000000      33.320000196000
      1981    2       27.440000196000      50.960000196000      31.359999804000
      1982    1       29.400000000000      50.960000196000      33.320000196000
      1983    2       31.359999804000      50.960000196000      31.359999804000
      1984    2       21.560000196000       9.800000196000      35.280000000000
      1985    2       25.479999804000       9.800000196000      35.280000000000
      1986    2       23.520000000000       9.800000196000      37.239999804000
      1987    2       29.400000000000       9.800000196000      35.280000000000
      1988    2       27.440000196000       9.800000196000      37.239999804000
      1989    2       33.320000196000       9.800000196000      35.280000000000
      1990    2       31.359999804000       9.800000196000      37.239999804000
      1991    2       37.239999804000       9.800000196000      35.280000000000
      1992    2       35.280000000000       9.800000196000      37.239999804000
      1993    2       17.640000000000      13.719999804000      35.280000000000
      1994    2       19.599999804000      11.760000000000      35.280000000000
      1995    2       21.560000196000      13.719999804000      35.280000000000
      1996    1       19.599999804000      13.719999804000      37.239999804000
      1997    1       21.560000196000      11.760000000000      37.239999804000
      1998    1       23.520000000000      11.760000000000      35.280000000000
      1999    1       25.479999804000      13.719999804000      35.280000000000
      2000    2       23.520000000000      13.719999804000      37.239999804000
      2001    1       25.479999804000      11.760000000000      37.239999804000
      2002    1       27.440000196000      11.760000000000      35.280000000000
      2003    1       29.400000000000      13.719999804000      35.280000000000
      2004    1       27.440000196000      13.719999804000      37.239999804000
      2005    2       29.400000000000      11.760000000000      37.239999804000
      2006    1       31.359999804000      11.760000000000      35.280000000000
      2007    2       33.320000196000      13.719999804000      35.280000000000
      2008    2       31.359999804000      13.719999804000      37.239999804000
      2009    2       33.320000196000      11.760000000000      37.239999804000
      2010    2       35.280000000000      11.760000000000      35.280000000000
      2011    2       37.239999804000      13.719999804000      35.280000000000
      2012    2       35.280000000000      13.719999804000      37.239999804000
      2013    1       37.239999804000      11.760000000000      37.239999804000
      2014    2       39.200000196000      11.760000000000      35.280000000000
      2015    2       41.160000000000      13.719999804000      35.280000000000
      2016    2       39.200000196000      13.719999804000      37.239999804000
      2017    2       13.719999804000      17.640000000000      35.280000000000
      2018    2       15.680000196000      15.680000196000      35.280000000000
      2019    2       17.640000000000      17.640000000000      35.280000000000
      2020    2       15.680000196000      17.640000000000      37.239999804000
      2021    2       17.640000000000      15.680000196000      37.239999804000
      2022    2       19.599999804000      15.680000196000      35.280000000000
      2023    2       21.560000196000      17.640000000000      35.280000000000
      2024    2       19.599999804000      17.640000000000      37.239999804000
      2025    2       21.560000196000      15.680000196000      37.239999804000
      2026    1       23.520000000000      15.680000196000      35.280000000000
      2027    1       25.479999804000      17.640000000000      35.280000000000
      2028    1       23.520000000000      17.640000000000      37.239999804000
      2029    2       25.479999804000      15.680000196000      37.239999804000
      2030    1       27.440000196000      15.680000196000      35.280000000000
      2031    2       29.400000000000      17.640000000000      35.280000000000
      2032    1       27.440000196000      17.640000000000      37.239999804000
      2033    1       29.400000000000      15.680000196000      37.239999804000
      2034    1       31.359999804000      15.680000196000      35.280000000000
      2035    2       33.320000196000      17.640000000000      35.280000000000
      2036    1       31.359999804000      17.640000000000      37.239999804000
      2037    1       33.320000196000      15.680000196000      37.239999804000
      2038    1       35.280000000000      15.680000196000      35.280000000000
      2039    2       37.239999804000      17.640000000000      35.280000000000
      2040    2       35.280000000000      17.640000000000      37.239999804000
      2041    2       37.239999804000      15.680000196000      37.239999804000
      2042    1       39.200000196000      15.680000196000      35.280000000000
      2043    1       41.160000000000      17.640000000000      35.280000000000
      2044    1       39.200000196000      17.640000000000      37.239999804000
      2045    1       41.160000000000      15.680000196000      37.239999804000
      2046    1       43.119999804000      15.680000196000      35.280000000000
      2047    1       45.080000196000      17.640000000000      35.280000000000
      2048    2       43.119999804000      17.640000000000      37.239999804000
      2049    2        9.800000196000      21.560000196000      35.280000000000
      2050    2       11.760000000000      19.599999804000      35.280000000000
      2051    1       13.719999804000      21.560000196000      35.280000000000
      2052    2       11.760000000000      21.560000196000      37.239999804000
      2053    1       13.719999804000      19.599999804000      37.239999804000
      2054    1       15.680000196000      19.599999804000      35.280000000000
      2055    1       17.640000000000      21.560000196000      35.280000000000
      2056    1       15.680000196000      21.560000196000      37.239999804000
      2057    2       17.640000000000      19.599999804000      37.239999804000
      2058    1       19.599999804000      19.599999804000      35.280000000000
      2059    2       21.560000196000      21.560000196000      35.280000000000
      2060    2       19.599999804000      21.560000196000      37.239999804000
      2061    1       21.560000196000      19.599999804000      37.239999804000
      2062    1       23.520000000000      19.599999804000      35.280000000000
      2063    1       25.479999804000      21.560000196000      35.280000000000
      2064    2       23.520000000000      21.560000196000      37.239999804000
      2065    1       25.479999804000      19.599999804000      37.239999804000
      2066    2       27.440000196000      19.599999804000      35.280000000000
      2067    2       29.400000000000      21.560000196000      35.280000000000
      2068    1       27.440000196000      21.560000196000      37.239999804000
      2069    1       29.400000000000      19.599999804000      37.239999804000
      2070    2       31.359999804000      19.599999804000      35.280000000000
      2071    1       33.320000196000      21.560000196000      35.280000000000
      2072    2       31.359999804000      21.560000196000      37.239999804000
      2073    2       33.320000196000      19.599999804000      37.239999804000
      2074    2       35.280000000000      19.599999804000      35.280000000000
      2075    2       37.239999804000      21.560000196000      35.280000000000
      2076    2       35.280000000000      21.560000196000      37.239999804000
      2077    1       37.239999804000      19.599999804000      37.239999804000
      2078    1       39.200000196000      19.599999804000      35.280000000000
      2079    2       41.160000000000      21.560000196000      35.280000000000
      2080    2       39.200000196000      21.560000196000      37.239999804000
      2081    2       41.160000000000      19.599999804000      37.239999804000
      2082    2       43.119999804000      19.599999804000      35.280000000000
      2083    2       45.080000196000      21.560000196000      35.280000000000
      2084    1       43.119999804000      21.560000196000      37.239999804000
      2085    2       45.080000196000      19.599999804000      37.239999804000
      2086    2       47.040000000000      19.599999804000      35.280000000000
      2087    1       48.999999804000      21.560000196000      35.280000000000
      2088    1       47.040000000000      21.560000196000      37.239999804000
      2089    2        9.800000196000      25.479999804000      35.280000000000
      2090    1        9.800000196000      23.520000000000      37.239999804000
      2091    2       11.760000000000      23.520000000000      35.280000000000
      2092    1       13.719999804000      25.479999804000      35.280000000000
      2093    1       11.760000000000      25.479999804000      37.239999804000
      2094    1       13.719999804000      23.520000000000      37.239999804000
      2095    1       15.680000196000      23.520000000000      35.280000000000
      2096    2       17.640000000000      25.479999804000      35.280000000000
      2097    2       15.680000196000      25.479999804000      37.239999804000
      2098    2       17.640000000000      23.520000000000      37.239999804000
      2099    1       19.599999804000      23.520000000000      35.280000000000
      2100    1       21.560000196000      25.479999804000      35.280000000000
      2101    1       19.599999804000      25.479999804000      37.239999804000
      2102    1       21.560000196000      23.520000000000      37.239999804000
      2103    1       23.520000000000      23.520000000000      35.280000000000
      2104    1       25.479999804000      25.479999804000      35.280000000000
      2105    1       23.520000000000      25.479999804000      37.239999804000
      2106    1       25.479999804000      23.520000000000      37.239999804000
      2107    2       27.440000196000      23.520000000000      35.280000000000
      2108    2       29.400000000000      25.479999804000      35.280000000000
      2109    1       27.440000196000      25.479999804000      37.239999804000
      2110    2       29.400000000000      23.520000000000      37.239999804000
      2111    2       31.359999804000      23.520000000000      35.280000000000
      2112    1       33.320000196000      25.479999804000      35.280000000000
      2113    1       31.359999804000      25.479999804000      37.239999804000
      2114    1       33.320000196000      23.520000000000      37.239999804000
      2115    2       35.280000000000      23.520000000000      35.280000000000
      2116    1       37.239999804000      25.479999804000      35.280000000000
      2117    1       35.280000000000      25.479999804000      37.239999804000
      2118    2       37.239999804000      23.520000000000      37.239999804000
      2119    1       39.200000196000      23.520000000000      35.280000000000
      2120    2       41.160000000000      25.479999804000      35.280000000000
      2121    2       39.200000196000      25.479999804000      37.239999804000
      2122    1       41.160000000000      23.520000000000      37.239999804000
      2123    2       43.119999804000      23.520000000000      35.280000000000
      2124    2       45.080000196000      25.479999804000      35.280000000000
      2125    2       43.119999804000      25.479999804000      37.239999804000
      2126    2       45.080000196000      23.520000000000      37.239999804000
      2127    1       47.040000000000      23.520000000000      35.280000000000
      2128    1       48.999999804000      25.479999804000      35.280000000000
      2129    1       47.040000000000      25.479999804000      37.239999804000
      2130    1       48.999999804000      23.520000000000      37.239999804000
      2131    1        9.800000196000      29.400000000000      35.280000000000
      2132    1        9.800000196000      27.440000196000      37.239999804000
      2133    1       11.760000000000      27.440000196000      35.280000000000
      2134    1       13.719999804000      29.400000000000      35.280000000000
      2135    2       11.760000000000      29.400000000000      37.239999804000
      2136    2       13.719999804000      27.440000196000      37.239999804000
      2137    1       15.680000196000      27.440000196000      35.280000000000
      2138    2       17.640000000000      29.400000000000      35.280000000000
      2139    2       15.680000196000      29.400000000000      37.239999804000
      2140    2       17.640000000000      27.440000196000      37.239999804000
      2141    1       19.599999804000      27.440000196000      35.280000000000
      2142    1       21.560000196000      29.400000000000      35.280000000000
      2143    1       19.599999804000      29.400000000000      37.239999804000
      2144    1       21.560000196000      27.440000196000      37.239999804000
      2145    1       23.520000000000      27.440000196000      35.280000000000
      2146    1       25.479999804000      29.400000000000      35.280000000000
      2147    1       23.520000000000      29.400000000000      37.239999804000
      2148    1       25.479999804000      27.440000196000      37.239999804000
      2149    2       27.440000196000      27.440000196000      35.280000000000
      2150    1       29.400000000000      29.400000000000      35.280000000000
      2151    2       27.440000196000      29.400000000000      37.239999804000
      2152    2       29.400000000000      27.440000196000      37.239999804000
      2153    2       31.359999804000      27.440000196000      35.280000000000
      2154    2       33.320000196000      29.400000000000      35.280000000000
      2155    2       31.359999804000      29.400000000000      37.239999804000
      2156    2       33.320000196000      27.440000196000      37.239999804000
      2157    2       35.280000000000      27.440000196000      35.280000000000
      2158    2       37.239999804000      29.400000000000      35.280000000000
      2159    2       35.280000000000      29.400000000000      37.239999804000
      2160    1       37.239999804000      27.440000196000      37.239999804000
      2161    2       39.200000196000      27.440000196000      35.280000000000
      2162    2       41.160000000000      29.400000000000      35.280000000000
      2163    1       39.200000196000      29.400000000000      37.239999804000
      2164    1       41.160000000000      27.440000196000      37.239999804000
      2165    2       43.119999804000      27.440000196000      35.280000000000
      2166    1       45.080000196000      29.400000000000      35.280000000000
      2167    2       43.119999804000      29.400000000000      37.239999804000
      2168    2       45.080000196000      27.440000196000      37.239999804000
      2169    1       47.040000000000      27.440000196000      35.280000000000
      2170    1       48.999999804000      29.400000000000      35.280000000000
      2171    1       47.040000000000      29.400000000000      37.239999804000
      2172    1       48.999999804000      27.440000196000      37.239999804000
      2173    1        9.800000196000      33.320000196000      35.280000000000
      2174    2        9.800000196000      31.359999804000      37.239999804000
      2175    1       11.760000000000      31.359999804000      35.280000000000
      2176    2       13.719999804000      33.320000196000      35.280000000000
      2177    1       11.760000000000      33.320000196000      37.239999804000
      2178    1       13.719999804000      31.359999804000      37.239999804000
      2179    1       15.680000196000      31.359999804000      35.280000000000
      2180    2       17.640000000000      33.320000196000      35.280000000000
      2181    2       15.680000196000      33.320000196000      37.239999804000
      2182    2       17.640000000000      31.359999804000      37.239999804000
      2183    2       19.599999804000      31.359999804000      35.280000000000
      2184    2       21.560000196000      33.320000196000      35.280000000000
      2185    1       19.599999804000      33.320000196000      37.239999804000
      2186    1       21.560000196000      31.359999804000      37.239999804000
      2187    1       23.520000000000      31.359999804000      35.280000000000
      2188    1       25.479999804000      33.320000196000      35.280000000000
      2189    1       23.520000000000      33.320000196000      37.239999804000
      2190    1       25.479999804000      31.359999804000      37.239999804000
      2191    1       27.440000196000      31.359999804000      35.280000000000
      2192    1       29.400000000000      33.320000196000      35.280000000000
      2193    1       27.440000196000      33.320000196000      37.239999804000
      2194    2       29.400000000000      31.359999804000      37.239999804000
      2195    2       31.359999804000      31.359999804000      35.280000000000
      2196    2       33.320000196000      33.320000196000      35.280000000000
      2197    2       31.359999804000      33.320000196000      37.239999804000
      2198    1       33.320000196000      31.359999804000      37.239999804000
      2199    2       35.280000000000      31.359999804000      35.280000000000
      2200    2       37.239999804000      33.320000196000      35.280000000000
      2201    2       35.280000000000      33.320000196000      37.239999804000
      2202    1       37.239999804000      31.359999804000      37.239999804000
      2203    2       39.200000196000      31.359999804000      35.280000000000
      2204    2       41.160000000000      33.320000196000      35.280000000000
      2205    2       39.200000196000      33.320000196000      37.239999804000
      2206    2       41.160000000000      31.359999804000      37.239999804000
      2207    2       43.119999804000      31.359999804000      35.280000000000
      2208    2       45.080000196000      33.320000196000      35.280000000000
      2209    1       43.119999804000      33.320000196000      37.239999804000
      2210    1       45.080000196000      31.359999804000      37.239999804000
      2211    1       47.040000000000      31.359999804000      35.280000000000
      2212    1       48.999999804000      33.320000196000      35.280000000000
      2213    2       47.040000000000      33.320000196000      37.239999804000
      2214    1       48.999999804000      31.359999804000      37.239999804000
      2215    1        9.800000196000      37.239999804000      35.280000000000
      2216    1        9.800000196000      35.280000000000      37.239999804000
      2217    2       11.760000000000      35.280000000000      35.280000000000
      2218    1       13.719999804000      37.239999804000      35.280000000000
      2219    1       11.760000000000      37.239999804000      37.239999804000
      2220    2       13.719999804000      35.280000000000      37.239999804000
      2221    1       15.680000196000      35.280000000000      35.280000000000
      2222    2       17.640000000000      37.239999804000      35.280000000000
      2223    2       15.680000196000      37.239999804000      37.239999804000
      2224    1       17.640000000000      35.280000000000      37.239999804000
      2225    2       19.599999804000      35.280000000000      35.280000000000
      2226    1       21.560000196000      37.239999804000      35.280000000000
      2227    1       19.599999804000      37.239999804000      37.239999804000
      2228    2       21.560000196000      35.280000000000      37.239999804000
      2229    2       23.520000000000      35.280000000000      35.280000000000
      2230    2       25.479999804000      37.239999804000      35.280000000000
      2231    2       23.520000000000      37.239999804000      37.239999804000
      2232    1       25.479999804000      35.280000000000      37.239999804000
      2233    2       27.440000196000      35.280000000000      35.280000000000
      2234    2       29.400000000000      37.239999804000      35.280000000000
      2235    1       27.440000196000      37.239999804000      37.239999804000
      2236    1       29.400000000000      35.280000000000      37.239999804000
      2237    1       31.359999804000      35.280000000000      35.280000000000
      2238    1       33.320000196000      37.239999804000      35.280000000000
      2239    2       31.359999804000      37.239999804000      37.239999804000
      2240    2       33.320000196000      35.280000000000      37.239999804000
      2241    2       35.280000000000      35.280000000000      35.280000000000
      2242    2       37.239999804000      37.239999804000      35.280000000000
      2243    1       35.280000000000      37.239999804000      37.239999804000
      2244    1       37.239999804000      35.280000000000      37.239999804000
      2245    1       39.200000196000      35.280000000000      35.280000000000
      2246    2       41.160000000000      37.239999804000      35.280000000000
      2247    1       39.200000196000      37.239999804000      37.239999804000
      2248    1       41.160000000000      35.280000000000      37.239999804000
      2249    2       43.119999804000      35.280000000000      35.280000000000
      2250    1       45.080000196000      37.239999804000      35.280000000000
      2251    2       43.119999804000      37.239999804000      37.239999804000
      2252    2       45.080000196000      35.280000000000      37.239999804000
      2253    2       47.040000000000      35.280000000000      35.280000000000
      2254    1       48.999999804000      37.239999804000      35.280000000000
      2255    1       47.040000000000      37.239999804000      37.239999804000
      2256    2       48.999999804000      35.280000000000      37.239999804000
      2257    2       11.760000000000      39.200000196000      35.280000000000
      2258    2       13.719999804000      41.160000000000      35.280000000000
      2259    1       13.719999804000      39.200000196000      37.239999804000
      2260    1       15.680000196000      39.200000196000      35.280000000000
      2261    2       17.640000000000      41.160000000000      35.280000000000
      2262    1       15.680000196000      41.160000000000      37.239999804000
      2263    1       17.640000000000      39.200000196000      37.239999804000
      2264    2       19.599999804000      39.200000196000      35.280000000000
      2265    2       21.560000196000      41.160000000000      35.280000000000
      2266    2       19.599999804000      41.160000000000      37.239999804000
      2267    1       21.560000196000      39.200000196000      37.239999804000
      2268    2       23.520000000000      39.200000196000      35.280000000000
      2269    1       25.479999804000      41.160000000000      35.280000000000
      2270    1       23.520000000000      41.160000000000      37.239999804000
      2271    1       25.479999804000      39.200000196000      37.239999804000
      2272    1       27.440000196000      39.200000196000      35.280000000000
      2273    1       29.400000000000      41.160000000000      35.280000000000
      2274    2       27.440000196000      41.160000000000      37.239999804000
      2275    2       29.400000000000      39.200000196000      37.239999804000
      2276    1       31.359999804000      39.200000196000      35.280000000000
      2277    1       33.320000196000      41.160000000000      35.280000000000
      2278    1       31.359999804000      41.160000000000      37.239999804000
      2279    2       33.320000196000      39.200000196000      37.239999804000
      2280    2       35.280000000000      39.200000196000      35.280000000000
      2281    2       37.239999804000      41.160000000000      35.280000000000
      2282    1       35.280000000000      41.160000000000      37.239999804000
      2283    1       37.239999804000      39.200000196000      37.239999804000
      2284    2       39.200000196000      39.200000196000      35.280000000000
      2285    2       41.160000000000      41.160000000000      35.280000000000
      2286    1       39.200000196000      41.160000000000      37.239999804000
      2287    2       41.160000000000      39.200000196000      37.239999804000
      2288    1       43.119999804000      39.200000196000      35.280000000000
      2289    1       45.080000196000      41.160000000000      35.280000000000
      2290    1       43.119999804000      41.160000000000      37.239999804000
      2291    2       45.080000196000      39.200000196000      37.239999804000
      2292    1       47.040000000000      39.200000196000      35.280000000000
      2293    1       15.680000196000      43.119999804000      35.280000000000
      2294    1       17.640000000000      45.080000196000      35.280000000000
      2295    1       17.640000000000      43.119999804000      37.239999804000
      2296    1       19.599999804000      43.119999804000      35.280000000000
      2297    1       21.560000196000      45.080000196000      35.280000000000
      2298    1       19.599999804000      45.080000196000      37.239999804000
      2299    2       21.560000196000      43.119999804000      37.239999804000
      2300    1       23.520000000000      43.119999804000      35.280000000000
      2301    1       25.479999804000      45.080000196000      35.280000000000
      2302    1       23.520000000000      45.080000196000      37.239999804000
      2303    1       25.479999804000      43.119999804000      37.239999804000
      2304    1       27.440000196000      43.119999804000      35.280000000000
      2305    1       29.400000000000      45.080000196000      35.280000000000
      2306    1       27.440000196000      45.080000196000      37.239999804000
      2307    1       29.400000000000      43.119999804000      37.239999804000
      2308    2       31.359999804000      43.119999804000      35.280000000000
      2309    1       33.320000196000      45.080000196000      35.280000000000
      2310    1       31.359999804000      45.080000196000      37.239999804000
      2311    2       33.320000196000      43.119999804000      37.239999804000
      2312    1       35.280000000000      43.119999804000      35.280000000000
      2313    1       37.239999804000      45.080000196000      35.280000000000
      2314    1       35.280000000000      45.080000196000      37.239999804000
      2315    1       37.239999804000      43.119999804000      37.239999804000
      2316    2       39.200000196000      43.119999804000      35.280000000000
      2317    2       41.160000000000      45.080000196000      35.280000000000
      2318    1       39.200000196000      45.080000196000      37.239999804000
      2319    1       41.160000000000      43.119999804000      37.239999804000
      2320    1       43.119999804000      43.119999804000      35.280000000000
      2321    1       19.599999804000      47.040000000000      35.280000000000
      2322    1       21.560000196000      48.999999804000      35.280000000000
      2323    2       21.560000196000      47.040000000000      37.239999804000
      2324    2       23.520000000000      47.040000000000      35.280000000000
      2325    1       25.479999804000      48.999999804000      35.280000000000
      2326    1       23.520000000000      48.999999804000      37.239999804000
      2327    2       25.479999804000      47.040000000000      37.239999804000
      2328    1       27.440000196000      47.040000000000      35.280000000000
      2329    1       29.400000000000      48.999999804000      35.280000000000
      2330    2       27.440000196000      48.999999804000      37.239999804000
      2331    2       29.400000000000      47.040000000000      37.239999804000
      2332    2       31.359999804000      47.040000000000      35.280000000000
      2333    2       33.320000196000      48.999999804000      35.280000000000
      2334    2       31.359999804000      48.999999804000      37.239999804000
      2335    2       33.320000196000      47.040000000000      37.239999804000
      2336    1       35.280000000000      47.040000000000      35.280000000000
      2337    1       37.239999804000      48.999999804000      35.280000000000
      2338    1       35.280000000000      48.999999804000      37.239999804000
      2339    2       37.239999804000      47.040000000000      37.239999804000
      2340    2       39.200000196000      47.040000000000      35.280000000000
      2341    2       29.400000000000       9.800000196000      39.200000196000
      2342    1       17.640000000000      13.719999804000      39.200000196000
      2343    1       21.560000196000      13.719999804000      39.200000196000
      2344    2       19.599999804000      13.719999804000      41.160000000000
      2345    2       23.520000000000      11.760000000000      39.200000196000
      2346    2       25.479999804000      13.719999804000      39.200000196000
      2347    1       23.520000000000      13.719999804000      41.160000000000
      2348    2       25.479999804000      11.760000000000      41.160000000000
      2349    1       27.440000196000      11.760000000000      39.200000196000
      2350    2       29.400000000000      13.719999804000      39.200000196000
      2351    1       27.440000196000      13.719999804000      41.160000000000
      2352    1       29.400000000000      11.760000000000      41.160000000000
      2353    1       31.359999804000      11.760000000000      39.200000196000
      2354    2       33.320000196000      13.719999804000      39.200000196000
      2355    1       31.359999804000      13.719999804000      41.160000000000
      2356    2       33.320000196000      11.760000000000      41.160000000000
      2357    1       35.280000000000      11.760000000000      39.200000196000
      2358    1       37.239999804000      13.719999804000      39.200000196000
      2359    1       35.280000000000      13.719999804000      41.160000000000
      2360    2       41.160000000000      13.719999804000      39.200000196000
      2361    2       39.200000196000      13.719999804000      41.160000000000
      2362    1       13.719999804000      17.640000000000      39.200000196000
      2363    1       15.680000196000      15.680000196000      39.200000196000
      2364    1       17.640000000000      17.640000000000      39.200000196000
      2365    2       15.680000196000      17.640000000000      41.160000000000
      2366    2       17.640000000000      15.680000196000      41.160000000000
      2367    1       19.599999804000      15.680000196000      39.200000196000
      2368    2       21.560000196000      17.640000000000      39.200000196000
      2369    1       19.599999804000      17.640000000000      41.160000000000
      2370    1       21.560000196000      15.680000196000      41.160000000000
      2371    2       23.520000000000      15.680000196000      39.200000196000
      2372    1       25.479999804000      17.640000000000      39.200000196000
      2373    1       23.520000000000      17.640000000000      41.160000000000
      2374    1       25.479999804000      15.680000196000      41.160000000000
      2375    2       27.440000196000      15.680000196000      39.200000196000
      2376    2       29.400000000000      17.640000000000      39.200000196000
      2377    2       27.440000196000      17.640000000000      41.160000000000
      2378    1       29.400000000000      15.680000196000      41.160000000000
      2379    1       31.359999804000      15.680000196000      39.200000196000
      2380    2       33.320000196000      17.640000000000      39.200000196000
      2381    2       31.359999804000      17.640000000000      41.160000000000
      2382    1       33.320000196000      15.680000196000      41.160000000000
      2383    1       35.280000000000      15.680000196000      39.200000196000
      2384    2       37.239999804000      17.640000000000      39.200000196000
      2385    1       35.280000000000      17.640000000000      41.160000000000
      2386    2       37.239999804000      15.680000196000      41.160000000000
      2387    2       39.200000196000      15.680000196000      39.200000196000
      2388    1       41.160000000000      17.640000000000      39.200000196000
      2389    2       39.200000196000      17.640000000000      41.160000000000
      2390    2       41.160000000000      15.680000196000      41.160000000000
      2391    2       43.119999804000      15.680000196000      39.200000196000
      2392    1       45.080000196000      17.640000000000      39.200000196000
      2393    1       43.119999804000      17.640000000000      41.160000000000
      2394    1       13.719999804000      21.560000196000      39.200000196000
      2395    1       13.719999804000      19.599999804000      41.160000000000
      2396    1       15.680000196000      19.599999804000      39.200000196000
      2397    2       17.640000000000      21.560000196000      39.200000196000
      2398    2       15.680000196000      21.560000196000      41.160000000000
      2399    2       17.640000000000      19.599999804000      41.160000000000
      2400    1       19.599999804000      19.599999804000      39.200000196000
      2401    1       21.560000196000      21.560000196000      39.200000196000
      2402    1       19.599999804000      21.560000196000      41.160000000000
      2403    1       21.560000196000      19.599999804000      41.160000000000
      2404    1       23.520000000000      19.599999804000      39.200000196000
      2405    2       25.479999804000      21.560000196000      39.200000196000
      2406    2       23.520000000000      21.560000196000      41.160000000000
      2407    2       25.479999804000      19.599999804000      41.160000000000
      2408    2       27.440000196000      19.599999804000      39.200000196000
      2409    1       29.400000000000      21.560000196000      39.200000196000
      2410    1       27.440000196000      21.560000196000      41.160000000000
      2411    1       29.400000000000      19.599999804000      41.160000000000
      2412    1       31.359999804000      19.599999804000      39.200000196000
      2413    1       33.320000196000      21.560000196000      39.200000196000
      2414    2       31.359999804000      21.560000196000      41.160000000000
      2415    1       33.320000196000      19.599999804000      41.160000000000
      2416    1       35.280000000000      19.599999804000      39.200000196000
      2417    1       37.239999804000      21.560000196000      39.200000196000
      2418    2       35.280000000000      21.560000196000      41.160000000000
      2419    1       37.239999804000      19.599999804000      41.160000000000
      2420    1       39.200000196000      19.599999804000      39.200000196000
      2421    1       41.160000000000      21.560000196000      39.200000196000
      2422    1       39.200000196000      21.560000196000      41.160000000000
      2423    2       41.160000000000      19.599999804000      41.160000000000
      2424    1       43.119999804000      19.599999804000      39.200000196000
      2425    2       45.080000196000      21.560000196000      39.200000196000
      2426    2       43.119999804000      21.560000196000      41.160000000000
      2427    2       45.080000196000      19.599999804000      41.160000000000
      2428    2       11.760000000000      23.520000000000      39.200000196000
      2429    2       13.719999804000      25.479999804000      39.200000196000
      2430    2       11.760000000000      25.479999804000      41.160000000000
      2431    2       13.719999804000      23.520000000000      41.160000000000
      2432    1       15.680000196000      23.520000000000      39.200000196000
      2433    1       17.640000000000      25.479999804000      39.200000196000
      2434    2       15.680000196000      25.479999804000      41.160000000000
      2435    1       17.640000000000      23.520000000000      41.160000000000
      2436    2       19.599999804000      23.520000000000      39.200000196000
      2437    2       21.560000196000      25.479999804000      39.200000196000
      2438    1       19.599999804000      25.479999804000      41.160000000000
      2439    2       21.560000196000      23.520000000000      41.160000000000
      2440    2       23.520000000000      23.520000000000      39.200000196000
      2441    2       25.479999804000      25.479999804000      39.200000196000
      2442    2       23.520000000000      25.479999804000      41.160000000000
      2443    2       25.479999804000      23.520000000000      41.160000000000
      2444    2       27.440000196000      23.520000000000      39.200000196000
      2445    2       29.400000000000      25.479999804000      39.200000196000
      2446    2       27.440000196000      25.479999804000      41.160000000000
      2447    2       29.400000000000      23.520000000000      41.160000000000
      2448    2       31.359999804000      23.520000000000      39.200000196000
      2449    2       33.320000196000      25.479999804000      39.200000196000
      2450    2       31.359999804000      25.479999804000      41.160000000000
      2451    2       33.320000196000      23.520000000000      41.160000000000
      2452    1       35.280000000000      23.520000000000      39.200000196000
      2453    1       37.239999804000      25.479999804000      39.200000196000
      2454    1       35.280000000000      25.479999804000      41.160000000000
      2455    2       37.239999804000      23.520000000000      41.160000000000
      2456    2       39.200000196000      23.520000000000      39.200000196000
      2457    2       41.160000000000      25.479999804000      39.200000196000
      2458    2       39.200000196000      25.479999804000      41.160000000000
      2459    1       41.160000000000      23.520000000000      41.160000000000
      2460    1       43.119999804000      23.520000000000      39.200000196000
      2461    1       45.080000196000      25.479999804000      39.200000196000
      2462    2       43.119999804000      25.479999804000      41.160000000000
      2463    2       45.080000196000      23.520000000000      41.160000000000
      2464    2       47.040000000000      23.520000000000      39.200000196000
      2465    2       47.040000000000      25.479999804000      41.160000000000
      2466    2        9.800000196000      29.400000000000      39.200000196000
      2467    2       11.760000000000      27.440000196000      39.200000196000
      2468    1       13.719999804000      29.400000000000      39.200000196000
      2469    1       11.760000000000      29.400000000000      41.160000000000
      2470    2       13.719999804000      27.440000196000      41.160000000000
      2471    1       15.680000196000      27.440000196000      39.200000196000
      2472    1       17.640000000000      29.400000000000      39.200000196000
      2473    1       15.680000196000      29.400000000000      41.160000000000
      2474    1       17.640000000000      27.440000196000      41.160000000000
      2475    1       19.599999804000      27.440000196000      39.200000196000
      2476    1       21.560000196000      29.400000000000      39.200000196000
      2477    2       19.599999804000      29.400000000000      41.160000000000
      2478    2       21.560000196000      27.440000196000      41.160000000000
      2479    2       23.520000000000      27.440000196000      39.200000196000
      2480    1       25.479999804000      29.400000000000      39.200000196000
      2481    1       23.520000000000      29.400000000000      41.160000000000
      2482    1       25.479999804000      27.440000196000      41.160000000000
      2483    1       27.440000196000      27.440000196000      39.200000196000
      2484    1       29.400000000000      29.400000000000      39.200000196000
      2485    1       27.440000196000      29.400000000000      41.160000000000
      2486    2       29.400000000000      27.440000196000      41.160000000000
      2487    2       31.359999804000      27.440000196000      39.200000196000
      2488    2       33.320000196000      29.400000000000      39.200000196000
      2489    1       31.359999804000      29.400000000000      41.160000000000
      2490    1       33.320000196000      27.440000196000      41.160000000000
      2491    1       35.280000000000      27.440000196000      39.200000196000
      2492    1       37.239999804000      29.400000000000      39.200000196000
      2493    1       35.280000000000      29.400000000000      41.160000000000
      2494    2       37.239999804000      27.440000196000      41.160000000000
      2495    2       39.200000196000      27.440000196000      39.200000196000
      2496    2       41.160000000000      29.400000000000      39.200000196000
      2497    1       39.200000196000      29.400000000000      41.160000000000
      2498    1       41.160000000000      27.440000196000      41.160000000000
      2499    2       43.119999804000      27.440000196000      39.200000196000
      2500    2       45.080000196000      29.400000000000      39.200000196000
      2501    1       43.119999804000      29.400000000000      41.160000000000
      2502    1       45.080000196000      27.440000196000      41.160000000000
      2503    2       47.040000000000      27.440000196000      39.200000196000
      2504    2       48.999999804000      29.400000000000      39.200000196000
      2505    2       47.040000000000      29.400000000000      41.160000000000
      2506    2       11.760000000000      31.359999804000      39.200000196000
      2507    2       13.719999804000      33.320000196000      39.200000196000
      2508    1       11.760000000000      33.320000196000      41.160000000000
      2509    1       13.719999804000      31.359999804000      41.160000000000
      2510    1       15.680000196000      31.359999804000      39.200000196000
      2511    2       17.640000000000      33.320000196000      39.200000196000
      2512    2       15.680000196000      33.320000196000      41.160000000000
      2513    1       17.640000000000      31.359999804000      41.160000000000
      2514    2       19.599999804000      31.359999804000      39.200000196000
      2515    1       21.560000196000      33.320000196000      39.200000196000
      2516    2       19.599999804000      33.320000196000      41.160000000000
      2517    2       21.560000196000      31.359999804000      41.160000000000
      2518    1       23.520000000000      31.359999804000      39.200000196000
      2519    1       25.479999804000      33.320000196000      39.200000196000
      2520    1       23.520000000000      33.320000196000      41.160000000000
      2521    1       25.479999804000      31.359999804000      41.160000000000
      2522    2       27.440000196000      31.359999804000      39.200000196000
      2523    1       29.400000000000      33.320000196000      39.200000196000
      2524    2       27.440000196000      33.320000196000      41.160000000000
      2525    1       29.400000000000      31.359999804000      41.160000000000
      2526    2       31.359999804000      31.359999804000      39.200000196000
      2527    2       33.320000196000      33.320000196000      39.200000196000
      2528    1       31.359999804000      33.320000196000      41.160000000000
      2529    1       33.320000196000      31.359999804000      41.160000000000
      2530    1       35.280000000000      31.359999804000      39.200000196000
      2531    1       37.239999804000      33.320000196000      39.200000196000
      2532    1       35.280000000000      33.320000196000      41.160000000000
      2533    2       37.239999804000      31.359999804000      41.160000000000
      2534    2       39.200000196000      31.359999804000      39.200000196000
      2535    2       41.160000000000      33.320000196000      39.200000196000
      2536    1       39.200000196000      33.320000196000      41.160000000000
      2537    2       41.160000000000      31.359999804000      41.160000000000
      2538    1       43.119999804000      31.359999804000      39.200000196000
      2539    1       45.080000196000      33.320000196000      39.200000196000
      2540    2       43.119999804000      33.320000196000      41.160000000000
      2541    2       45.080000196000      31.359999804000      41.160000000000
      2542    1       47.040000000000      31.359999804000      39.200000196000
      2543    1       47.040000000000      33.320000196000      41.160000000000
      2544    2       11.760000000000      35.280000000000      39.200000196000
      2545    2       13.719999804000      37.239999804000      39.200000196000
      2546    1       13.719999804000      35.280000000000      41.160000000000
      2547    1       15.680000196000      35.280000000000      39.200000196000
      2548    2       17.640000000000      37.239999804000      39.200000196000
      2549    1       15.680000196000      37.239999804000      41.160000000000
      2550    1       17.640000000000      35.280000000000      41.160000000000
      2551    1       19.599999804000      35.280000000000      39.200000196000
      2552    2       21.560000196000      37.239999804000      39.200000196000
      2553    2       19.599999804000      37.239999804000      41.160000000000
      2554    2       21.560000196000      35.280000000000      41.160000000000
      2555    1       23.520000000000      35.280000000000      39.200000196000
      2556    2       25.479999804000      37.239999804000      39.200000196000
      2557    2       23.520000000000      37.239999804000      41.160000000000
      2558    2       25.479999804000      35.280000000000      41.160000000000
      2559    2       27.440000196000      35.280000000000      39.200000196000
      2560    2       29.400000000000      37.239999804000      39.200000196000
      2561    2       27.440000196000      37.239999804000      41.160000000000
      2562    2       29.400000000000      35.280000000000      41.160000000000
      2563    2       31.359999804000      35.280000000000      39.200000196000
      2564    2       33.320000196000      37.239999804000      39.200000196000
      2565    2       31.359999804000      37.239999804000      41.160000000000
      2566    2       33.320000196000      35.280000000000      41.160000000000
      2567    2       35.280000000000      35.280000000000      39.200000196000
      2568    2       37.239999804000      37.239999804000      39.200000196000
      2569    2       35.280000000000      37.239999804000      41.160000000000
      2570    1       37.239999804000      35.280000000000      41.160000000000
      2571    1       39.200000196000      35.280000000000      39.200000196000
      2572    1       41.160000000000      37.239999804000      39.200000196000
      2573    2       39.200000196000      37.239999804000      41.160000000000
      2574    1       41.160000000000      35.280000000000      41.160000000000
      2575    1       43.119999804000      35.280000000000      39.200000196000
      2576    1       45.080000196000      37.239999804000      39.200000196000
      2577    1       43.119999804000      37.239999804000      41.160000000000
      2578    2       45.080000196000      35.280000000000      41.160000000000
      2579    1       47.040000000000      35.280000000000      39.200000196000
      2580    1       13.719999804000      41.160000000000      39.200000196000
      2581    1       13.719999804000      39.200000196000      41.160000000000
      2582    1       15.680000196000      39.200000196000      39.200000196000
      2583    1       17.640000000000      41.160000000000      39.200000196000
      2584    1       15.680000196000      41.160000000000      41.160000000000
      2585    1       17.640000000000      39.200000196000      41.160000000000
      2586    2       19.599999804000      39.200000196000      39.200000196000
      2587    2       21.560000196000      41.160000000000      39.200000196000
      2588    2       19.599999804000      41.160000000000      41.160000000000
      2589    1       21.560000196000      39.200000196000      41.160000000000
      2590    2       23.520000000000      39.200000196000      39.200000196000
      2591    2       25.479999804000      41.160000000000      39.200000196000
      2592    2       23.520000000000      41.160000000000      41.160000000000
      2593    1       25.479999804000      39.200000196000      41.160000000000
      2594    2       27.440000196000      39.200000196000      39.200000196000
      2595    2       29.400000000000      41.160000000000      39.200000196000
      2596    2       27.440000196000      41.160000000000      41.160000000000
      2597    2       29.400000000000      39.200000196000      41.160000000000
      2598    2       31.359999804000      39.200000196000      39.200000196000
      2599    1       33.320000196000      41.160000000000      39.200000196000
      2600    1       31.359999804000      41.160000000000      41.160000000000
      2601    1       33.320000196000      39.200000196000      41.160000000000
      2602    1       35.280000000000      39.200000196000      39.200000196000
      2603    1       37.239999804000      41.160000000000      39.200000196000
      2604    1       35.280000000000      41.160000000000      41.160000000000
      2605    1       37.239999804000      39.200000196000      41.160000000000
      2606    2       39.200000196000      39.200000196000      39.200000196000
      2607    2       41.160000000000      41.160000000000      39.200000196000
      2608    2       39.200000196000      41.160000000000      41.160000000000
      2609    2       41.160000000000      39.200000196000      41.160000000000
      2610    2       43.119999804000      39.200000196000      39.200000196000
      2611    1       45.080000196000      41.160000000000      39.200000196000
      2612    2       43.119999804000      41.160000000000      41.160000000000
      2613    2       45.080000196000      39.200000196000      41.160000000000
      2614    1       15.680000196000      43.119999804000      39.200000196000
      2615    2       17.640000000000      45.080000196000      39.200000196000
      2616    1       17.640000000000      43.119999804000      41.160000000000
      2617    2       19.599999804000      43.119999804000      39.200000196000
      2618    2       21.560000196000      45.080000196000      39.200000196000
      2619    2       19.599999804000      45.080000196000      41.160000000000
      2620    2       21.560000196000      43.119999804000      41.160000000000
      2621    1       23.520000000000      43.119999804000      39.200000196000
      2622    1       25.479999804000      45.080000196000      39.200000196000
      2623    2       23.520000000000      45.080000196000      41.160000000000
      2624    2       25.479999804000      43.119999804000      41.160000000000
      2625    1       27.440000196000      43.119999804000      39.200000196000
      2626    2       29.400000000000      45.080000196000      39.200000196000
      2627    2       27.440000196000      45.080000196000      41.160000000000
      2628    2       29.400000000000      43.119999804000      41.160000000000
      2629    1       31.359999804000      43.119999804000      39.200000196000
      2630    2       33.320000196000      45.080000196000      39.200000196000
      2631    2       31.359999804000      45.080000196000      41.160000000000
      2632    2       33.320000196000      43.119999804000      41.160000000000
      2633    1       35.280000000000      43.119999804000      39.200000196000
      2634    1       37.239999804000      45.080000196000      39.200000196000
      2635    1       35.280000000000      45.080000196000      41.160000000000
      2636    1       37.239999804000      43.119999804000      41.160000000000
      2637    1       39.200000196000      43.119999804000      39.200000196000
      2638    1       41.160000000000      45.080000196000      39.200000196000
      2639    2       39.200000196000      45.080000196000      41.160000000000
      2640    2       41.160000000000      43.119999804000      41.160000000000
      2641    2       43.119999804000      43.119999804000      39.200000196000
      2642    2       23.520000000000      47.040000000000      39.200000196000
      2643    2       25.479999804000      47.040000000000      41.160000000000
      2644    2       27.440000196000      47.040000000000      39.200000196000
      2645    2       29.400000000000      48.999999804000      39.200000196000
      2646    1       29.400000000000      47.040000000000      41.160000000000
      2647    1       31.359999804000      47.040000000000      39.200000196000
      2648    2       33.320000196000      47.040000000000      41.160000000000
      2649    1       35.280000000000      47.040000000000      39.200000196000
      2650    1       25.479999804000      13.719999804000      43.119999804000
      2651    2       29.400000000000      13.719999804000      43.119999804000
      2652    1       33.320000196000      13.719999804000      43.119999804000
      2653    2       17.640000000000      17.640000000000      43.119999804000
      2654    1       19.599999804000      15.680000196000      43.119999804000
      2655    2       21.560000196000      17.640000000000      43.119999804000
      2656    1       19.599999804000      17.640000000000      45.080000196000
      2657    1       23.520000000000      15.680000196000      43.119999804000
      2658    1       25.479999804000      17.640000000000      43.119999804000
      2659    2       23.520000000000      17.640000000000      45.080000196000
      2660    1       25.479999804000      15.680000196000      45.080000196000
      2661    2       27.440000196000      15.680000196000      43.119999804000
      2662    1       29.400000000000      17.640000000000      43.119999804000
      2663    1       27.440000196000      17.640000000000      45.080000196000
      2664    1       29.400000000000      15.680000196000      45.080000196000
      2665    1       31.359999804000      15.680000196000      43.119999804000
      2666    1       33.320000196000      17.640000000000      43.119999804000
      2667    1       31.359999804000      17.640000000000      45.080000196000
      2668    1       33.320000196000      15.680000196000      45.080000196000
      2669    1       35.280000000000      15.680000196000      43.119999804000
      2670    1       37.239999804000      17.640000000000      43.119999804000
      2671    1       35.280000000000      17.640000000000      45.080000196000
      2672    2       39.200000196000      15.680000196000      43.119999804000
      2673    1       41.160000000000      17.640000000000      43.119999804000
      2674    1       39.200000196000      17.640000000000      45.080000196000
      2675    1       15.680000196000      19.599999804000      43.119999804000
      2676    1       17.640000000000      21.560000196000      43.119999804000
      2677    2       17.640000000000      19.599999804000      45.080000196000
      2678    2       19.599999804000      19.599999804000      43.119999804000
      2679    2       21.560000196000      21.560000196000      43.119999804000
      2680    1       19.599999804000      21.560000196000      45.080000196000
      2681    1       21.560000196000      19.599999804000      45.080000196000
      2682    2       23.520000000000      19.599999804000      43.119999804000
      2683    2       25.479999804000      21.560000196000      43.119999804000
      2684    2       23.520000000000      21.560000196000      45.080000196000
      2685    2       25.479999804000      19.599999804000      45.080000196000
      2686    1       27.440000196000      19.599999804000      43.119999804000
      2687    2       29.400000000000      21.560000196000      43.119999804000
      2688    1       27.440000196000      21.560000196000      45.080000196000
      2689    1       29.400000000000      19.599999804000      45.080000196000
      2690    1       31.359999804000      19.599999804000      43.119999804000
      2691    1       33.320000196000      21.560000196000      43.119999804000
      2692    2       31.359999804000      21.560000196000      45.080000196000
      2693    1       33.320000196000      19.599999804000      45.080000196000
      2694    1       35.280000000000      19.599999804000      43.119999804000
      2695    1       37.239999804000      21.560000196000      43.119999804000
      2696    1       35.280000000000      21.560000196000      45.080000196000
      2697    1       37.239999804000      19.599999804000      45.080000196000
      2698    1       39.200000196000      19.599999804000      43.119999804000
      2699    1       41.160000000000      21.560000196000      43.119999804000
      2700    1       39.200000196000      21.560000196000      45.080000196000
      2701    1       41.160000000000      19.599999804000      45.080000196000
      2702    1       43.119999804000      19.599999804000      43.119999804000
      2703    2       13.719999804000      25.479999804000      43.119999804000
      2704    1       15.680000196000      23.520000000000      43.119999804000
      2705    2       17.640000000000      25.479999804000      43.119999804000
      2706    1       15.680000196000      25.479999804000      45.080000196000
      2707    1       17.640000000000      23.520000000000      45.080000196000
      2708    2       19.599999804000      23.520000000000      43.119999804000
      2709    1       21.560000196000      25.479999804000      43.119999804000
      2710    1       19.599999804000      25.479999804000      45.080000196000
      2711    2       21.560000196000      23.520000000000      45.080000196000
      2712    1       23.520000000000      23.520000000000      43.119999804000
      2713    2       25.479999804000      25.479999804000      43.119999804000
      2714    1       23.520000000000      25.479999804000      45.080000196000
      2715    1       25.479999804000      23.520000000000      45.080000196000
      2716    1       27.440000196000      23.520000000000      43.119999804000
      2717    1       29.400000000000      25.479999804000      43.119999804000
      2718    1       27.440000196000      25.479999804000      45.080000196000
      2719    2       29.400000000000      23.520000000000      45.080000196000
      2720    1       31.359999804000      23.520000000000      43.119999804000
      2721    2       33.320000196000      25.479999804000      43.119999804000
      2722    1       31.359999804000      25.479999804000      45.080000196000
      2723    2       33.320000196000      23.520000000000      45.080000196000
      2724    2       35.280000000000      23.520000000000      43.119999804000
      2725    1       37.239999804000      25.479999804000      43.119999804000
      2726    2       35.280000000000      25.479999804000      45.080000196000
      2727    2       37.239999804000      23.520000000000      45.080000196000
      2728    2       39.200000196000      23.520000000000      43.119999804000
      2729    2       41.160000000000      25.479999804000      43.119999804000
      2730    2       39.200000196000      25.479999804000      45.080000196000
      2731    2       41.160000000000      23.520000000000      45.080000196000
      2732    2       43.119999804000      23.520000000000      43.119999804000
      2733    2       45.080000196000      25.479999804000      43.119999804000
      2734    2       43.119999804000      25.479999804000      45.080000196000
      2735    2       13.719999804000      29.400000000000      43.119999804000
      2736    1       15.680000196000      27.440000196000      43.119999804000
      2737    1       17.640000000000      29.400000000000      43.119999804000
      2738    1       15.680000196000      29.400000000000      45.080000196000
      2739    1       17.640000000000      27.440000196000      45.080000196000
      2740    1       19.599999804000      27.440000196000      43.119999804000
      2741    2       21.560000196000      29.400000000000      43.119999804000
      2742    1       19.599999804000      29.400000000000      45.080000196000
      2743    2       21.560000196000      27.440000196000      45.080000196000
      2744    2       23.520000000000      27.440000196000      43.119999804000
      2745    2       25.479999804000      29.400000000000      43.119999804000
      2746    2       23.520000000000      29.400000000000      45.080000196000
      2747    2       25.479999804000      27.440000196000      45.080000196000
      2748    2       27.440000196000      27.440000196000      43.119999804000
      2749    2       29.400000000000      29.400000000000      43.119999804000
      2750    2       27.440000196000      29.400000000000      45.080000196000
      2751    2       29.400000000000      27.440000196000      45.080000196000
      2752    2       31.359999804000      27.440000196000      43.119999804000
      2753    2       33.320000196000      29.400000000000      43.119999804000
      2754    2       31.359999804000      29.400000000000      45.080000196000
      2755    2       33.320000196000      27.440000196000      45.080000196000
      2756    2       35.280000000000      27.440000196000      43.119999804000
      2757    1       37.239999804000      29.400000000000      43.119999804000
      2758    1       35.280000000000      29.400000000000      45.080000196000
      2759    1       37.239999804000      27.440000196000      45.080000196000
      2760    1       39.200000196000      27.440000196000      43.119999804000
      2761    2       41.160000000000      29.400000000000      43.119999804000
      2762    1       39.200000196000      29.400000000000      45.080000196000
      2763    2       41.160000000000      27.440000196000      45.080000196000
      2764    2       43.119999804000      27.440000196000      43.119999804000
      2765    2       45.080000196000      29.400000000000      43.119999804000
      2766    1       43.119999804000      29.400000000000      45.080000196000
      2767    2       13.719999804000      33.320000196000      43.119999804000
      2768    2       15.680000196000      31.359999804000      43.119999804000
      2769    1       17.640000000000      33.320000196000      43.119999804000
      2770    2       15.680000196000      33.320000196000      45.080000196000
      2771    1       17.640000000000      31.359999804000      45.080000196000
      2772    2       19.599999804000      31.359999804000      43.119999804000
      2773    1       21.560000196000      33.320000196000      43.119999804000
      2774    1       19.599999804000      33.320000196000      45.080000196000
      2775    1       21.560000196000      31.359999804000      45.080000196000
      2776    1       23.520000000000      31.359999804000      43.119999804000
      2777    2       25.479999804000      33.320000196000      43.119999804000
      2778    1       23.520000000000      33.320000196000      45.080000196000
      2779    1       25.479999804000      31.359999804000      45.080000196000
      2780    2       27.440000196000      31.359999804000      43.119999804000
      2781    1       29.400000000000      33.320000196000      43.119999804000
      2782    1       27.440000196000      33.320000196000      45.080000196000
      2783    2       29.400000000000      31.359999804000      45.080000196000
      2784    2       31.359999804000      31.359999804000      43.119999804000
      2785    2       33.320000196000      33.320000196000      43.119999804000
      2786    2       31.359999804000      33.320000196000      45.080000196000
      2787    2       33.320000196000      31.359999804000      45.080000196000
      2788    2       35.280000000000      31.359999804000      43.119999804000
      2789    2       37.239999804000      33.320000196000      43.119999804000
      2790    2       35.280000000000      33.320000196000      45.080000196000
      2791    1       37.239999804000      31.359999804000      45.080000196000
      2792    1       39.200000196000      31.359999804000      43.119999804000
      2793    1       41.160000000000      33.320000196000      43.119999804000
      2794    1       39.200000196000      33.320000196000      45.080000196000
      2795    1       41.160000000000      31.359999804000      45.080000196000
      2796    2       43.119999804000      31.359999804000      43.119999804000
      2797    1       45.080000196000      33.320000196000      43.119999804000
      2798    1       43.119999804000      33.320000196000      45.080000196000
      2799    1       15.680000196000      35.280000000000      43.119999804000
      2800    1       17.640000000000      37.239999804000      43.119999804000
      2801    2       17.640000000000      35.280000000000      45.080000196000
      2802    2       19.599999804000      35.280000000000      43.119999804000
      2803    2       21.560000196000      37.239999804000      43.119999804000
      2804    2       19.599999804000      37.239999804000      45.080000196000
      2805    2       21.560000196000      35.280000000000      45.080000196000
      2806    2       23.520000000000      35.280000000000      43.119999804000
      2807    2       25.479999804000      37.239999804000      43.119999804000
      2808    2       23.520000000000      37.239999804000      45.080000196000
      2809    2       25.479999804000      35.280000000000      45.080000196000
      2810    2       27.440000196000      35.280000000000      43.119999804000
      2811    1       29.400000000000      37.239999804000      43.119999804000
      2812    2       27.440000196000      37.239999804000      45.080000196000
      2813    1       29.400000000000      35.280000000000      45.080000196000
      2814    1       31.359999804000      35.280000000000      43.119999804000
      2815    2       33.320000196000      37.239999804000      43.119999804000
      2816    2       31.359999804000      37.239999804000      45.080000196000
      2817    2       33.320000196000      35.280000000000      45.080000196000
      2818    1       35.280000000000      35.280000000000      43.119999804000
      2819    1       37.239999804000      37.239999804000      43.119999804000
      2820    2       35.280000000000      37.239999804000      45.080000196000
      2821    1       37.239999804000      35.280000000000      45.080000196000
      2822    1       39.200000196000      35.280000000000      43.119999804000
      2823    2       41.160000000000      37.239999804000      43.119999804000
      2824    2       39.200000196000      37.239999804000      45.080000196000
      2825    1       41.160000000000      35.280000000000      45.080000196000
      2826    1       43.119999804000      35.280000000000      43.119999804000
      2827    1       15.680000196000      39.200000196000      43.119999804000
      2828    1       17.640000000000      41.160000000000      43.119999804000
      2829    1       17.640000000000      39.200000196000      45.080000196000
      2830    2       19.599999804000      39.200000196000      43.119999804000
      2831    1       21.560000196000      41.160000000000      43.119999804000
      2832    2       19.599999804000      41.160000000000      45.080000196000
      2833    2       21.560000196000      39.200000196000      45.080000196000
      2834    2       23.520000000000      39.200000196000      43.119999804000
      2835    2       25.479999804000      41.160000000000      43.119999804000
      2836    1       23.520000000000      41.160000000000      45.080000196000
      2837    2       25.479999804000      39.200000196000      45.080000196000
      2838    2       27.440000196000      39.200000196000      43.119999804000
      2839    1       29.400000000000      41.160000000000      43.119999804000
      2840    1       27.440000196000      41.160000000000      45.080000196000
      2841    2       29.400000000000      39.200000196000      45.080000196000
      2842    2       31.359999804000      39.200000196000      43.119999804000
      2843    1       33.320000196000      41.160000000000      43.119999804000
      2844    2       31.359999804000      41.160000000000      45.080000196000
      2845    2       33.320000196000      39.200000196000      45.080000196000
      2846    1       35.280000000000      39.200000196000      43.119999804000
      2847    1       37.239999804000      41.160000000000      43.119999804000
      2848    1       35.280000000000      41.160000000000      45.080000196000
      2849    1       37.239999804000      39.200000196000      45.080000196000
      2850    2       39.200000196000      39.200000196000      43.119999804000
      2851    1       41.160000000000      41.160000000000      43.119999804000
      2852    1       39.200000196000      41.160000000000      45.080000196000
      2853    1       41.160000000000      39.200000196000      45.080000196000
      2854    1       43.119999804000      39.200000196000      43.119999804000
      2855    1       19.599999804000      43.119999804000      43.119999804000
      2856    1       23.520000000000      43.119999804000      43.119999804000
      2857    1       25.479999804000      45.080000196000      43.119999804000
      2858    1       25.479999804000      43.119999804000      45.080000196000
      2859    1       27.440000196000      43.119999804000      43.119999804000
      2860    1       29.400000000000      45.080000196000      43.119999804000
      2861    1       29.400000000000      43.119999804000      45.080000196000
      2862    2       31.359999804000      43.119999804000      43.119999804000
      2863    2       33.320000196000      45.080000196000      43.119999804000
      2864    2       33.320000196000      43.119999804000      45.080000196000
      2865    2       35.280000000000      43.119999804000      43.119999804000
      2866    2       39.200000196000      43.119999804000      43.119999804000
      2867    2       25.479999804000      17.640000000000      47.040000000000
      2868    2       29.400000000000      17.640000000000      47.040000000000
      2869    1       33.320000196000      17.640000000000      47.040000000000
      2870    2       21.560000196000      21.560000196000      47.040000000000
      2871    1       23.520000000000      19.599999804000      47.040000000000
      2872    1       25.479999804000      21.560000196000      47.040000000000
      2873    1       23.520000000000      21.560000196000      48.999999804000
      2874    2       27.440000196000      19.599999804000      47.040000000000
      2875    1       29.400000000000      21.560000196000      47.040000000000
      2876    1       27.440000196000      21.560000196000      48.999999804000
      2877    1       29.400000000000      19.599999804000      48.999999804000
      2878    2       31.359999804000      19.599999804000      47.040000000000
      2879    1       33.320000196000      21.560000196000      47.040000000000
      2880    1       31.359999804000      21.560000196000      48.999999804000
      2881    2       35.280000000000      19.599999804000      47.040000000000
      2882    1       37.239999804000      21.560000196000      47.040000000000
      2883    1       35.280000000000      21.560000196000      48.999999804000
      2884    2       17.640000000000      25.479999804000      47.040000000000
      2885    2       19.599999804000      23.520000000000      47.040000000000
      2886    1       21.560000196000      25.479999804000      47.040000000000
      2887    1       21.560000196000      23.520000000000      48.999999804000
      2888    1       23.520000000000      23.520000000000      47.040000000000
      2889    1       25.479999804000      25.479999804000      47.040000000000
      2890    1       23.520000000000      25.479999804000      48.999999804000
      2891    1       25.479999804000      23.520000000000      48.999999804000
      2892    1       27.440000196000      23.520000000000      47.040000000000
      2893    2       29.400000000000      25.479999804000      47.040000000000
      2894    1       27.440000196000      25.479999804000      48.999999804000
      2895    2       29.400000000000      23.520000000000      48.999999804000
      2896    2       31.359999804000      23.520000000000      47.040000000000
      2897    2       33.320000196000      25.479999804000      47.040000000000
      2898    1       31.359999804000      25.479999804000      48.999999804000
      2899    1       33.320000196000      23.520000000000      48.999999804000
      2900    2       35.280000000000      23.520000000000      47.040000000000
      2901    1       37.239999804000      25.479999804000      47.040000000000
      2902    2       35.280000000000      25.479999804000      48.999999804000
      2903    1       37.239999804000      23.520000000000      48.999999804000
      2904    1       39.200000196000      23.520000000000      47.040000000000
      2905    1       41.160000000000      25.479999804000      47.040000000000
      2906    1       17.640000000000      29.400000000000      47.040000000000
      2907    2       19.599999804000      27.440000196000      47.040000000000
      2908    2       21.560000196000      29.400000000000      47.040000000000
      2909    1       19.599999804000      29.400000000000      48.999999804000
      2910    2       21.560000196000      27.440000196000      48.999999804000
      2911    1       23.520000000000      27.440000196000      47.040000000000
      2912    1       25.479999804000      29.400000000000      47.040000000000
      2913    1       23.520000000000      29.400000000000      48.999999804000
      2914    1       25.479999804000      27.440000196000      48.999999804000
      2915    2       27.440000196000      27.440000196000      47.040000000000
      2916    1       29.400000000000      29.400000000000      47.040000000000
      2917    1       27.440000196000      29.400000000000      48.999999804000
      2918    1       29.400000000000      27.440000196000      48.999999804000
      2919    2       31.359999804000      27.440000196000      47.040000000000
      2920    1       33.320000196000      29.400000000000      47.040000000000
      2921    1       31.359999804000      29.400000000000      48.999999804000
      2922    1       33.320000196000      27.440000196000      48.999999804000
      2923    1       35.280000000000      27.440000196000      47.040000000000
      2924    1       37.239999804000      29.400000000000      47.040000000000
      2925    1       35.280000000000      29.400000000000      48.999999804000
      2926    1       37.239999804000      27.440000196000      48.999999804000
      2927    2       39.200000196000      27.440000196000      47.040000000000
      2928    2       41.160000000000      29.400000000000      47.040000000000
      2929    2       39.200000196000      29.400000000000      48.999999804000
      2930    2       17.640000000000      33.320000196000      47.040000000000
      2931    1       19.599999804000      31.359999804000      47.040000000000
      2932    1       21.560000196000      33.320000196000      47.040000000000
      2933    2       21.560000196000      31.359999804000      48.999999804000
      2934    2       23.520000000000      31.359999804000      47.040000000000
      2935    2       25.479999804000      33.320000196000      47.040000000000
      2936    2       23.520000000000      33.320000196000      48.999999804000
      2937    2       25.479999804000      31.359999804000      48.999999804000
      2938    2       27.440000196000      31.359999804000      47.040000000000
      2939    2       29.400000000000      33.320000196000      47.040000000000
      2940    2       27.440000196000      33.320000196000      48.999999804000
      2941    2       29.400000000000      31.359999804000      48.999999804000
      2942    2       31.359999804000      31.359999804000      47.040000000000
      2943    2       33.320000196000      33.320000196000      47.040000000000
      2944    2       31.359999804000      33.320000196000      48.999999804000
      2945    2       33.320000196000      31.359999804000      48.999999804000
      2946    1       35.280000000000      31.359999804000      47.040000000000
      2947    2       37.239999804000      33.320000196000      47.040000000000
      2948    2       35.280000000000      33.320000196000      48.999999804000
      2949    1       37.239999804000      31.359999804000      48.999999804000
      2950    2       39.200000196000      31.359999804000      47.040000000000
      2951    1       41.160000000000      33.320000196000      47.040000000000
      2952    2       19.599999804000      35.280000000000      47.040000000000
      2953    1       21.560000196000      37.239999804000      47.040000000000
      2954    1       21.560000196000      35.280000000000      48.999999804000
      2955    1       23.520000000000      35.280000000000      47.040000000000
      2956    1       25.479999804000      37.239999804000      47.040000000000
      2957    1       23.520000000000      37.239999804000      48.999999804000
      2958    1       25.479999804000      35.280000000000      48.999999804000
      2959    1       27.440000196000      35.280000000000      47.040000000000
      2960    1       29.400000000000      37.239999804000      47.040000000000
      2961    2       27.440000196000      37.239999804000      48.999999804000
      2962    1       29.400000000000      35.280000000000      48.999999804000
      2963    1       31.359999804000      35.280000000000      47.040000000000
      2964    2       33.320000196000      37.239999804000      47.040000000000
      2965    2       31.359999804000      37.239999804000      48.999999804000
      2966    2       33.320000196000      35.280000000000      48.999999804000
      2967    2       35.280000000000      35.280000000000      47.040000000000
      2968    2       37.239999804000      37.239999804000      47.040000000000
      2969    2       35.280000000000      37.239999804000      48.999999804000
      2970    2       37.239999804000      35.280000000000      48.999999804000
      2971    1       39.200000196000      35.280000000000      47.040000000000
      2972    1       23.520000000000      39.200000196000      47.040000000000
      2973    2       25.479999804000      41.160000000000      47.040000000000
      2974    2       27.440000196000      39.200000196000      47.040000000000
      2975    2       29.400000000000      41.160000000000      47.040000000000
      2976    2       29.400000000000      39.200000196000      48.999999804000
      2977    1       31.359999804000      39.200000196000      47.040000000000
      2978    1       33.320000196000      41.160000000000      47.040000000000
      2979    2       35.280000000000      39.200000196000      47.040000000000
      2980    2       29.400000000000      25.479999804000      50.960000196000
      2981    2       25.479999804000      29.400000000000      50.960000196000
      2982    2       27.440000196000      27.440000196000      50.960000196000
      2983    2       29.400000000000      29.400000000000      50.960000196000
      2984    2       31.359999804000      27.440000196000      50.960000196000
      2985    1       33.320000196000      29.400000000000      50.960000196000
      2986    2       27.440000196000      31.359999804000      50.960000196000
      2987    1       29.400000000000      33.320000196000      50.960000196000
      2988    2       31.359999804000      31.359999804000      50.960000196000
