LAMMPS data file via write_data, version 2 Aug 2023, timestep = 25000, units = real

4500 atoms
5 atom types
3800 bonds
6 bond types
3400 angles
5 angle types
3000 dihedrals
3 dihedral types
600 impropers
1 improper types

-60 60 xlo xhi
-20 20 ylo yhi
-20 20 zlo zhi

Masses

1 15.9994
2 1.008
3 12.011
4 1.008
5 12.011

Pair Coeffs # lj/cut/tip4p/long

1 0.185199 3.1589
2 0 0
3 0.0663016 3.58118
4 0.0282937 2.37341
5 0.0734574 3.52053

Bond Coeffs # harmonic

1 0 0.9572
2 349.274 1.09
3 399.904 1.39
4 400.057 1.4
5 299.844 1.52
6 0 0

Angle Coeffs # harmonic

1 0 104.52
2 50.1709 108
3 45.1871 120
4 50.1166 120
5 55.0234 111.4

Dihedral Coeffs # harmonic

1 9.99044 -1 2
2 0.239006 1 6
3 0 1 1

Improper Coeffs # harmonic

1 20.0075 0

Atoms # full

191 13 4 0.123 -36.47735308415122 -10.798462118537074 -1.496239779871804 0 -2 0
189 13 4 0.123 -37.823176046868845 -11.515498862195885 -0.6032197444685228 0 -2 0
190 13 4 0.123 -36.62203392928567 -10.574182580490406 0.21323607895534777 0 -2 0
181 13 4 0.134 -34.79898896107116 -15.998351649360982 0.47215833387312883 0 -2 0
186 13 4 0.147 -35.02442329387748 -11.837126176976183 1.3748122855361533 0 -2 0
183 13 5 -0.08699999999999999 -34.677869004840446 -13.921520156763957 1.0044929643029181 0 -2 0
185 13 5 -0.271 -35.15528325916708 -12.677483973185158 0.6854534843668244 0 -2 0
194 13 5 -0.08699999999999999 -35.62550796063459 -14.798573547702304 -1.0499390590157172 0 -2 0
188 13 3 -0.439 -36.75922523360295 -11.292199343627209 -0.5738269518603591 0 -2 0
187 13 5 0.296 -35.91993678605083 -12.49814663709264 -0.44529679712645176 0 -2 0
193 13 4 0.147 -36.62251224090034 -13.32862171063635 -2.2915454356448195 0 -2 0
182 13 5 -0.184 -34.958818399837845 -14.975201869413663 0.1489964025804714 0 -2 0
192 13 5 -0.271 -36.11160982187542 -13.536846260666074 -1.3520001681999136 0 -2 0
195 13 4 0.123 -35.98261885204593 -15.677983283436884 -1.5987706530389345 0 -2 0
184 13 4 0.123 -34.08693266110391 -14.084630862775715 1.9100432698970724 0 -2 0
1405 94 4 0.123 -59.70936439320693 -2.7666612180974552 -3.6017851582150344 1 0 -1
823 55 4 0.147 -17.009130304483968 -18.21384193693332 -14.326180456127997 0 1 0
824 55 5 -0.08699999999999999 -16.332875814502586 -16.41405083782437 -13.518703075150025 0 1 0
825 55 4 0.123 -15.458267894827108 -16.393070867680596 -14.149564203454213 0 1 0
811 55 4 0.134 -15.883239833132375 -14.533270037999078 -12.581002786313908 0 1 0
196 14 4 0.134 -14.125269665300603 -18.231282908657388 -19.116893167542983 0 0 0
197 14 5 -0.184 -14.718411067829347 -17.31416655883777 -19.094438071402948 0 0 0
198 14 5 -0.08699999999999999 -15.63541152330944 -17.12343189272343 19.86986326388917 0 0 -1
812 55 5 -0.184 -16.564924093958208 -15.4137348952072 -12.605074508555486 0 1 0
815 55 5 -0.271 -18.61841784503528 -16.49062510663672 -11.944875094421267 0 1 0
813 55 5 -0.08699999999999999 -17.690380715603222 -15.467072955501946 -11.831505785278516 0 1 0
816 55 4 0.147 -19.31122193708983 -16.677554670071007 -11.140980087024161 0 1 0
210 14 4 0.123 -13.723186237771838 -16.396616791555594 -17.270503244653412 0 0 0
209 14 5 -0.08699999999999999 -14.569533863710653 -16.393795522137278 -17.966911796760932 0 0 0
822 55 5 -0.271 -17.211553257595234 -17.43585107547928 -13.602237643981546 0 1 0
818 55 3 -0.439 -19.059935322232192 -18.921683684299236 -12.828656824175486 0 1 0
821 55 4 0.123 -18.34387268676788 -19.689920335593936 -13.10339628656721 0 1 0
820 55 4 0.123 -20.00913873577057 -18.90093771033647 -13.432696947268079 0 1 0
817 55 5 0.296 -18.360108026171485 -17.560355892696986 -12.855514225986806 0 1 0
819 55 4 0.123 -19.374795742097067 -19.140559975069397 -11.842281514650594 0 1 0
207 14 5 -0.271 -15.439405584526357 -15.33527501853875 -17.93050186091859 0 0 0
202 14 5 0.296 -16.414265015799018 -15.176609864762828 -18.94455992772503 0 0 0
208 14 4 0.147 -15.477626648896507 -14.691220429869855 -17.033918456233014 0 0 0
2195 332 2 0.5564 -8.535413344333215 -15.555562557661348 -14.788986831128216 0 0 0
2814 538 2 0.5564 -11.397249122348708 -14.505108426216571 -17.812760877496807 0 0 1
2812 538 1 -1.1128 -11.02009198938477 -13.795245466627023 -18.33245202473552 0 0 1
2813 538 2 0.5564 -10.559136224102987 -14.238140558941822 -19.044909436203493 0 0 1
2194 332 1 -1.1128 -9.041207554543437 -15.615045248751072 -15.599459413300847 0 0 0
2422 408 1 -1.1128 -7.972712676975379 -19.881654402532448 -18.196808498088668 0 0 0
1917 239 2 0.5564 -7.5373510348980615 -16.34817754993405 -19.203013402719755 0 0 1
2423 408 2 0.5564 -8.2123055984208 19.645438291165416 -17.39982310325122 0 -1 0
1915 239 1 -1.1128 -8.354141770538446 -16.656677534206345 -18.81069657982403 0 0 1
1916 239 2 0.5564 -8.440567776467532 -16.147555078129713 -18.004745783651167 0 0 1
1889 230 2 0.5564 -12.53404870317705 -13.095299497551393 -19.092937802816998 0 0 0
2196 332 2 0.5564 -9.303821056552403 -14.713503535375711 -15.785170104891625 0 0 0
2222 341 2 0.5564 -7.109093988980527 -14.873205568307434 -13.654340716847194 0 0 0
2806 536 1 -1.1128 -10.58066217745326 -15.659830396678414 19.62573764518528 0 1 -1
2807 536 2 0.5564 -9.80705498698161 -15.999638542927256 -19.924491084209574 0 1 0
2221 341 1 -1.1128 -7.624236525238081 -15.281814973322529 -12.95871269166147 0 0 0
2297 366 2 0.5564 -10.141071143728722 -18.511160662156676 -16.872568968262286 0 1 0
2296 366 1 -1.1128 -10.75301196045906 -18.02829883817727 -16.31704697477916 0 1 0
2298 366 2 0.5564 -10.325612971390488 -17.185343636618196 -16.165427793916535 0 1 0
2808 536 2 0.5564 -11.241802286146664 -16.343202826437043 19.735863580148106 0 1 -1
2392 398 1 -1.1128 -6.830305314347118 -18.56259746280455 -14.42346182511667 0 1 0
2393 398 2 0.5564 -7.502954957009766 -18.294654371824734 -13.797378149189056 0 1 0
2780 527 2 0.5564 -7.474349673632929 19.756937241750798 -15.04998882818948 0 -1 0
2394 398 2 0.5564 -6.003150996369866 -18.414474084042688 -13.965087537600047 0 1 0
2054 285 2 0.5564 -9.847387288029616 -12.585539356324432 -17.119241280998853 0 0 1
2580 460 2 0.5564 -8.792399465072208 -11.718666033442629 -12.826106885602224 0 0 0
2108 303 2 0.5564 -11.830555461459301 -19.476586313807076 -15.903260791889005 0 1 0
2109 303 2 0.5564 -12.376207082775533 19.43183525825294 -16.79914917532944 0 0 0
2160 320 2 0.5564 -11.827316978730153 19.790050567931825 -18.773571892622854 0 -1 0
2053 285 1 -1.1128 -9.442884286537648 -12.347054312364534 -16.28513454329583 0 0 1
2055 285 2 0.5564 -10.14449975628019 -11.923523488852327 -15.79057491206683 0 0 1
2779 527 1 -1.1128 -7.889583701485289 19.09370484806301 -15.601292140700446 0 -1 0
2107 303 1 -1.1128 -12.207416742071974 19.643802192052245 -15.881101401076796 0 0 0
2781 527 2 0.5564 -7.213696990893537 18.427370806194947 -15.725420884138412 0 -1 0
2223 341 2 0.5564 -7.768584729060777 -14.580514027056871 -12.323439212413845 0 0 0
1633 145 1 -1.1128 -11.297546416643984 -18.7123986595677 -19.977006310341537 0 0 0
2402 401 2 0.5564 -5.40039696792437 -12.061605485554503 -14.776693250920998 0 0 0
2424 408 2 0.5564 -7.276632055737298 -19.284969328107323 -17.9217256933684 0 0 0
2082 294 2 0.5564 -5.071310212636994 -18.80891971538369 -16.792319086060356 0 0 0
2080 294 1 -1.1128 -5.787473797410362 -18.20152188788939 -16.977816808800394 0 0 0
2428 410 1 -1.1128 -6.228781665604533 -13.775325481807897 -14.745898559146525 0 0 0
2430 410 2 0.5564 -5.866082168788055 -14.278106249821485 -15.475208108005088 0 0 0
2429 410 2 0.5564 -5.637005476239401 -13.952253790714613 -14.014646823193537 0 0 0
34 3 4 0.123 -3.492739255599332 -12.72355920342918 -18.840232788477188 0 0 1
1872 224 2 0.5564 -4.680517683876476 -14.958711215765518 -17.015412954910737 0 0 0
43 3 4 0.147 -1.546745110901534 -16.825223358641953 -16.801745044156117 0 0 1
37 3 5 0.296 -2.1667406896713466 -14.830234108996308 -16.4581327031772 0 0 1
38 3 3 -0.439 -1.7062310460575438 -14.818364560993125 -15.043768887444676 0 0 1
40 3 4 0.123 -0.7326558682655817 -15.246100610678273 -14.901377118870627 0 0 1
39 3 4 0.123 -2.3565452862886684 -15.218940764503738 -14.362626754942367 0 0 1
42 3 5 -0.271 -2.1185973837859136 -16.006557430103772 -17.133997851617103 0 0 1
41 3 4 0.123 -1.5573129451609262 -13.816939106770324 -14.78616658636488 0 0 1
44 3 5 -0.08699999999999999 -2.611980426835226 -16.04978799229479 -18.443195444251202 0 0 1
35 3 5 -0.271 -2.6741870752858183 -13.68837672981076 -17.018236474869784 0 0 1
36 3 4 0.147 -2.9091607751921282 -12.840703497130693 -16.359604699892117 0 0 1
1870 224 1 -1.1128 -5.159046223700462 -15.473020413250453 -16.365237354308427 0 0 0
1871 224 2 0.5564 -5.396952143456185 -16.278587744477978 -16.824251375271906 0 0 0
1772 191 2 0.5564 -2.7815422899423625 -17.980271186523872 -13.894495888161615 0 1 0
32 3 5 -0.184 -3.1979825109002635 -14.898012767482422 -18.979812270912014 0 0 1
33 3 5 -0.08699999999999999 -3.1502154853473243 -13.673591795435906 -18.341558755896852 0 0 1
1773 191 2 0.5564 -1.667600140443075 -18.93101594293278 -13.510943550732543 0 1 0
1524 108 2 0.5564 -0.43798853161150225 -0.8516918215308865 -15.054036673057844 0 0 0
45 3 4 0.123 -2.210968816469963 -16.777654140960447 -19.153698621111204 0 0 1
1664 155 2 0.5564 -4.812632886582789 -16.591046557098693 -14.271413556014082 0 0 0
31 3 4 0.134 -3.377273757224384 -14.785798268382983 19.914406788059505 0 0 0
1771 191 1 -1.1128 -1.9130032285270158 -18.277397839743642 -14.165766022462433 0 1 0
1663 155 1 -1.1128 -4.502235305333289 -17.278988104458122 -13.682667803947538 0 0 0
1665 155 2 0.5564 -4.567416677173168 -16.894285081007475 -12.8086044164011 0 0 0
2758 520 1 -1.1128 -0.568231307332903 15.455272229413433 0.8207242169942736 0 0 0
134 9 5 -0.08699999999999999 -2.31815378301457 -16.817622759767804 17.443806290652994 0 0 0
135 9 4 0.123 -2.89190979436641 -15.886712727727344 17.489667696569793 0 0 0
122 9 5 -0.184 -2.547853519930312 -17.74590031322223 18.37987146972735 0 0 0
174 12 4 0.123 -3.757835742369573 18.23662910247667 -11.805948837975297 0 -1 0
172 12 5 0.296 -5.466600926426262 19.558949619212214 -11.560627693570192 0 -1 0
2893 565 1 -1.1128 -4.729518139496751 -13.953995614762142 -12.34293382915081 0 0 0
846 57 4 0.147 -0.4916332027828523 -12.16553161565242 -13.54944457068779 0 0 0
121 9 4 0.134 -3.403140907790159 -17.57182199487788 18.994410121104004 0 0 0
204 14 4 0.123 -18.09686529407367 -13.822389593178231 -18.778847843997404 0 0 0
203 14 3 -0.439 -17.027924153594945 -13.76941272562086 -19.06111402393186 0 0 0
1832 211 2 0.5564 -12.553433726807308 -7.60221641964944 -18.1272198640759 0 0 1
2403 401 2 0.5564 -5.530165776725249 -10.862810787622838 -13.861299092423367 0 0 0
2578 460 1 -1.1128 -8.770162958510074 -11.218671460394836 -13.642037494766283 0 0 0
2616 472 2 0.5564 -6.389087046987676 -10.615399627965388 -16.106649779334703 0 0 1
2457 419 2 0.5564 -12.620757353880364 -7.8664266146227355 -15.53899024994925 0 0 1
2091 297 2 0.5564 -14.666104171208374 -9.714732847119098 -13.218913643732668 0 0 0
2089 297 1 -1.1128 -13.795691532784616 -10.042561323171219 -13.445059448594638 0 0 0
2767 523 1 -1.1128 -11.689018038632188 -10.911028057131807 -15.26162735165218 0 0 0
2769 523 2 0.5564 -11.754918653145092 -9.991842450751804 -15.52044536243798 0 0 0
2768 523 2 0.5564 -12.493352786975407 -11.08050523717806 -14.771163402766573 0 0 0
2343 381 2 0.5564 -13.822190799978829 -5.555876745539681 -13.071308957641113 0 0 1
2342 381 2 0.5564 -13.309372256557262 -6.353392314171045 -14.251512834568315 0 0 1
2456 419 2 0.5564 -11.61076153618236 -7.872695480002538 -14.411264947639175 0 0 1
2455 419 1 -1.1128 -12.539622880163476 -8.011294992447398 -14.596301498122493 0 0 1
2090 297 2 0.5564 -13.39102503072869 -9.328794959203808 -13.938024385549017 0 0 0
1932 244 2 0.5564 -7.421375902434302 -9.584658843251466 -18.275366847404154 0 0 1
1930 244 1 -1.1128 -7.813050314247088 -9.170536194084159 -19.04434365885129 0 0 1
1891 231 1 -1.1128 -9.756442043953944 -7.89641643914857 -16.91190870138019 0 0 1
1893 231 2 0.5564 -9.233135585500342 -7.118839192286603 -17.10621723794026 0 0 1
1892 231 2 0.5564 -9.20699157381068 -8.6303577914461 -17.186983419391144 0 0 1
2650 484 1 -1.1128 -9.77566163111208 -8.62758713242311 -13.790244279223666 0 0 1
2651 484 2 0.5564 -8.859086740209815 -8.541162204348787 -14.052261562274147 0 0 1
2652 484 2 0.5564 -9.938673352426303 -9.570793149424915 -13.794874604551161 0 0 1
2656 486 1 -1.1128 -9.068862573253512 -4.4901966926341075 -18.409077570294084 0 0 1
2657 486 2 0.5564 -9.952303113216052 -4.125353362004792 -18.357560586818114 0 0 1
2614 472 1 -1.1128 -7.0139259272484145 -10.578333382653302 -16.83082810596037 0 0 1
2615 472 2 0.5564 -7.667006786043564 -11.245197992013646 -16.618675383959932 0 0 1
1688 163 2 0.5564 -8.422350792191507 -5.546619483696052 -13.23127829632557 0 0 0
1953 251 2 0.5564 -9.944548907052152 -4.326794982444197 -15.12059294355653 0 0 1
1951 251 1 -1.1128 -10.806790124188295 -4.521830619586234 -14.753532971890317 0 0 1
1645 149 1 -1.1128 -10.718263284839617 -7.244230744595531 -19.71478064349713 0 0 1
2658 486 2 0.5564 -8.89842204361767 -4.574652425816094 -19.34718686394418 0 0 1
1647 149 2 0.5564 -10.054809705703157 -6.554833235631016 -19.68663470520523 0 0 1
1687 163 1 -1.1128 -7.547402054183416 -5.566910411603637 -13.618943970965704 0 0 0
1689 163 2 0.5564 -7.498595968722725 -4.767527384281956 -14.143192542927956 0 0 0
2341 381 1 -1.1128 -13.794231078446042 -5.558893382701645 -14.028095757202465 0 0 1
1831 211 1 -1.1128 -12.394717826291876 -8.249160574032844 -17.439830359833675 0 0 1
1965 255 2 0.5564 -10.687082900328457 -4.324511598219892 -12.904983366674653 0 0 0
1833 211 2 0.5564 -11.447789781053258 -8.225476305234752 -17.301996487096893 0 0 1
2340 380 2 0.5564 -8.276683728702798 -4.458364365494117 -16.84464238236786 0 0 0
2338 380 1 -1.1128 -8.133918245839736 -4.097013717832354 -15.969842113706182 0 0 0
2689 497 1 -1.1128 -10.210270205277805 -7.247576852365552 -11.451769662197519 0 0 0
2690 497 2 0.5564 -9.829492288318516 -7.754874822158833 -12.168630004650396 0 0 0
2401 401 1 -1.1128 -5.260685293687 -11.115206445244086 -14.744423384067396 0 0 0
2579 460 2 0.5564 -8.895669239587404 -11.873856027921665 -14.328487168191096 0 0 0
1003 67 4 0.147 -1.4780444179716312 4.849145518866204 5.42297098627723 0 0 0
2419 407 1 -1.1128 -5.893735863111987 -9.764861662070542 -12.205270085484141 0 0 0
2421 407 2 0.5564 -6.228501794490403 -9.162824210872719 -12.869886129268895 0 0 0
1376 92 4 0.123 -4.485443785004609 -10.536031823376193 -19.09312935360458 0 0 0
1371 92 4 0.147 -2.1615122555743844 -10.462341771800025 -17.35875629185672 0 0 0
1373 92 3 -0.439 -3.9937964571834508 -9.594949154223904 -19.193247928972607 0 0 0
1375 92 4 0.123 -4.44943364514497 -9.112803874665792 19.966611188642556 0 0 -1
2833 545 1 -1.1128 -7.036771999281211 -8.018073106186112 -14.174344936063326 0 0 1
2835 545 2 0.5564 -7.189318411980489 -7.073474739531341 -14.200715441991996 0 0 1
1370 92 5 -0.271 -1.6838453005290202 -10.172903713211506 -18.347351623277593 0 0 0
1372 92 5 0.296 -2.470432827959221 -9.679353459867412 -19.34037170289783 0 0 0
2834 545 2 0.5564 -6.576200848428901 -8.209689327534933 -14.991283870440038 0 0 1
4422 1074 2 0.5564 -0.5230816598575914 -6.5668469817376165 14.38318305090951 0 0 0
1368 92 5 -0.08699999999999999 -0.335862207255602 -10.332216277514842 -18.639116469358736 0 0 0
3067 623 1 -1.1128 -0.12267688636403211 -7.96468873406621 12.370488573980175 0 0 0
1378 92 4 0.147 -2.5814980479319605 -8.672207580010488 18.82370478750474 0 0 -1
1377 92 5 -0.271 -1.930608735825479 -9.270071890250271 19.503076865890456 0 0 -1
1379 92 5 -0.08699999999999999 -0.604444112472184 -9.473971936837417 19.15083043756822 0 0 -1
984 66 4 0.123 -5.467664036141067 -5.846685735374042 -15.705588353416658 0 0 0
983 66 3 -0.439 -4.663332771767939 -6.463063851858207 -16.124949144491175 0 0 0
982 66 5 0.296 -4.507736167692589 -6.1311918696914445 -17.644240753448596 0 0 0
986 66 4 0.123 -3.7489583603481504 -6.1612682216048755 -15.590145570238748 0 0 0
2550 450 2 0.5564 -1.1515995590509929 16.688468110422995 5.848422576588754 0 0 0
1374 92 4 0.123 -4.25150546644578 -8.949583035093697 -18.32518846287475 0 0 0
980 66 5 -0.271 -5.583299474457587 -6.379933298872349 -18.42440193019476 0 0 0
981 66 4 0.147 -6.454355255570597 -6.824709682514273 -17.97992337563924 0 0 0
989 66 5 -0.08699999999999999 -3.245364424250324 -5.346303918124269 -19.5642366428186 0 0 0
987 66 5 -0.271 -3.432025296623666 -5.590364523340897 -18.199814538000254 0 0 0
977 66 5 -0.184 -4.3354606128098245 -5.598439623574322 19.64269544163604 0 0 -1
978 66 5 -0.08699999999999999 -5.505059005801168 -6.1468063780842135 -19.78834700591204 0 0 0
979 66 4 0.123 -6.419995465052832 -6.284868591526104 19.578460591401676 0 0 -1
1269 85 4 0.123 -2.2042731374527498 -9.795193376886209 -14.068849085125482 0 0 0
1268 85 3 -0.439 -2.2687836833025026 -8.786584802548083 -14.449482851488439 0 0 0
1271 85 4 0.123 -2.4286831065488075 -8.902163505223289 -15.54132846764079 0 0 0
1270 85 4 0.123 -3.160127348387788 -8.326845790647164 -13.956301879411965 0 0 0
985 66 4 0.123 -4.790893332397302 -7.5090890117195705 -15.98423955492831 0 0 0
4441 1081 1 -1.1128 -1.9011828272913527 1.983219423051539 -2.0055341125575348 0 0 0
2861 554 2 0.5564 -6.568182656972337 -6.57379880022905 -11.627334171045979 0 0 1
1719 173 2 0.5564 -0.39830416169723754 19.248542390526566 -19.061886472662586 0 0 1
1151 77 4 0.123 -0.2226197291921471 -0.3891666009479202 9.201318866261534 0 0 0
1454 97 5 -0.08699999999999999 -1.263060235094782 11.62062853407539 -6.702881034873822 0 -1 0
3882 894 2 0.5564 -0.14201750427165855 -19.86128627528485 -2.097384099338491 0 1 0
2858 553 2 0.5564 -12.126251092075611 -2.9802664161804606 18.347300913694276 0 0 0
2857 553 1 -1.1128 -12.00484524836119 -3.925925383721063 18.262321628632193 0 0 0
488 33 3 -0.439 -14.180055409799834 2.3943965422564983 -16.321151894168374 0 0 0
491 33 4 0.123 -13.260132682060561 2.279454994622786 -16.888479416416672 0 0 0
489 33 4 0.123 -13.895443951528371 2.955631861582285 -15.398450146317348 0 0 0
483 33 5 -0.08699999999999999 -16.556779556326074 3.1396037692811984 -19.13346443636526 0 0 0
482 33 5 -0.184 -16.85845573992428 4.47139049959004 -18.880238777990694 0 0 0
492 33 5 -0.271 -15.47175246773439 4.470517587479857 -16.955709168986484 0 0 0
487 33 5 0.296 -15.14870279330492 3.1073920267066666 -17.163016622298677 0 0 0
490 33 4 0.123 -14.537440709183123 1.409042846109274 -16.118523523944674 0 0 0
485 33 5 -0.271 -15.760242511283513 2.4996408194156383 -18.221628173991988 0 0 0
484 33 4 0.123 -16.94174514224731 2.606224843685444 -19.9976154727111 0 0 0
486 33 4 0.147 -15.508472280520781 1.4673371693776462 -18.322672595224887 0 0 0
481 33 4 0.134 -17.444968954281507 4.989592177939264 -19.623068764573603 0 0 0
494 33 5 -0.08699999999999999 -16.32741749805845 5.148775728528093 -17.798520487695214 0 0 0
1952 251 2 0.5564 -11.335827161849496 -4.780802089593618 -15.508043008615422 0 0 1
2859 553 2 0.5564 -11.233280375171976 -4.117687777434504 18.79537562164887 0 0 0
1746 182 2 0.5564 -12.09205847442043 -3.2473198911733356 -14.5989527989846 0 0 0
1744 182 1 -1.1128 -12.779589541109791 -2.596638380516326 -14.740890931656471 0 0 0
1745 182 2 0.5564 -13.593122721927168 -3.05948670554542 -14.540474088638137 0 0 0
1679 160 2 0.5564 -13.132716240152257 -1.6411437884800604 -16.3417101318533 0 0 0
1678 160 1 -1.1128 -13.180366779629244 -0.7832104365002452 -16.763505665643034 0 0 0
1680 160 2 0.5564 -14.035795829768174 -0.774080938210744 -17.192911789754564 0 0 0
2905 569 1 -1.1128 -12.53775111924966 4.692805557351145 -19.39110865677918 0 0 0
2257 353 1 -1.1128 -11.647618139462644 5.338012185009109 -16.44966871300606 0 0 0
2259 353 2 0.5564 -11.89810879752751 5.442112309625944 -17.3676280803609 0 0 0
2907 569 2 0.5564 -12.711024404282982 5.605993238348749 -19.619792884774036 0 0 0
2258 353 2 0.5564 -10.794022219767013 5.7661096164991905 -16.383801989173882 0 0 0
2619 473 2 0.5564 -11.848751003348868 -1.1112018520695708 -18.16101842367163 0 0 1
2617 473 1 -1.1128 -11.331195652409113 -1.5045586550300631 -18.863612710019506 0 0 1
2618 473 2 0.5564 -10.603972541732364 -0.8962785987777406 -18.99542225893459 0 0 1
2680 494 1 -1.1128 -8.244526321373229 0.7194078462595478 -16.720853429595604 0 0 0
2682 494 2 0.5564 -8.206035597294715 1.6157721959106308 -16.387264982935886 0 0 0
2681 494 2 0.5564 -9.022627677803825 0.34337629392990565 -16.30928280346666 0 0 0
2595 465 2 0.5564 -11.30702950354293 3.831675633440758 -13.441388172324412 0 0 1
2238 346 2 0.5564 -10.741219272496402 0.48844901891184195 -14.994476793419446 0 0 0
2237 346 2 0.5564 -11.598141180202829 -0.7565137637198153 -15.08192710361324 0 0 0
2236 346 1 -1.1128 -10.707527605453803 -0.4386470482790156 -15.23025109782947 0 0 0
1550 117 2 0.5564 -11.114150791329305 3.822769725960597 -15.642527481287532 0 0 1
1960 254 1 -1.1128 -11.7717243298842 -4.137603024299642 -18.203983327309857 0 0 0
1961 254 2 0.5564 -11.796120067425292 -3.185551101253885 -18.30007576876084 0 0 0
1549 117 1 -1.1128 -10.573695678318517 3.1298880740074044 -15.262981619086398 0 0 1
1925 242 2 0.5564 -7.068920882744041 -1.0297085432052346 -16.880816158913426 0 0 0
2217 339 2 0.5564 -7.57588320366778 4.1166748951806005 -15.444191257235142 0 0 0
2215 339 1 -1.1128 -7.843189137013121 3.2007332689795156 -15.520547398755305 0 0 0
2216 339 2 0.5564 -8.03250696805744 2.930286292234826 -14.622077139960503 0 0 0
1962 254 2 0.5564 -12.192304026516796 -4.4697164744138735 -18.997107011157308 0 0 0
2339 380 2 0.5564 -7.600221619223455 -3.3161342094738657 -16.11690314405308 0 0 0
2906 569 2 0.5564 -13.399288485251638 4.27576755598239 -19.399140708827737 0 0 0
1551 117 2 0.5564 -9.674038547142528 3.3964856289808627 -15.452123351220596 0 0 1
2141 314 2 0.5564 -9.468875682896686 -0.9886519974196342 -13.963256275740381 0 0 0
2067 289 2 0.5564 -5.705609337887871 1.9389174213494071 -17.96477820437012 0 0 1
990 66 4 0.123 -2.2802968779040658 -5.297806264875287 19.991515842268992 0 0 -1
2066 289 2 0.5564 -5.782980508936301 3.4362739503910538 -18.174139582551117 0 0 1
1920 240 2 0.5564 -4.2819893298931095 -3.52770926417118 -18.33124108727081 0 0 1
1918 240 1 -1.1128 -4.9508816317717566 -2.8440008760807993 -18.294393520191623 0 0 1
988 66 4 0.147 -2.5554791392039764 -5.728152940273314 -17.615397182139237 0 0 0
1843 215 1 -1.1128 -4.035919243689213 3.171271509722384 -13.029737311524674 0 0 0
409 28 4 0.123 -3.5917691422987756 -3.1194758282919848 -15.807280461617548 0 0 0
2520 440 2 0.5564 -6.114514666076908 2.502679474210344 -15.649852366191338 0 0 0
2518 440 1 -1.1128 -5.33018673789069 2.1197247760080775 -15.256905510208004 0 0 0
1926 242 2 0.5564 -6.122479798120496 -2.198095752586964 -17.056928811342374 0 0 0
1924 242 1 -1.1128 -6.633901149427852 -1.7311781251006924 -16.396120285124983 0 0 0
2519 440 2 0.5564 -5.63884437279398 1.3150329727544512 -14.840452139587448 0 0 0
2598 466 2 0.5564 -3.550826956395432 -0.058415261826609735 -17.078591949918504 0 0 0
4058 953 2 0.5564 -0.09178459834929364 0.7251650458149191 -4.374437836700831 0 0 0
419 28 5 -0.08699999999999999 -0.9896574472239169 -4.234514700196077 -13.880262100551342 0 0 0
406 28 4 0.134 -1.0974714988148608 -3.405043075320543 -15.789099105846061 0 0 0
407 28 5 -0.184 -1.6764359569378584 -3.5797250020582214 -14.88256530241574 0 0 0
1612 138 1 -1.1128 -4.113320604752163 3.933338129645545 -17.49552178049602 0 0 0
1613 138 2 0.5564 -4.268724431192875 3.727094184566044 -16.573814163135296 0 0 0
1629 143 2 0.5564 -1.205065038147921 2.4717587910855823 -17.11135122720028 0 0 0
1627 143 1 -1.1128 -2.0277045298447636 2.246592155596435 -17.54585793345627 0 0 0
408 28 5 -0.08699999999999999 -3.071353740212229 -3.3549839751952684 -14.872939420374044 0 0 0
1614 138 2 0.5564 -3.4273075801649147 3.3229011920399647 -17.76567862395223 0 0 0
2749 517 1 -1.1128 -2.3023752479495774 0.23030739676435347 -15.490354645698734 0 0 0
2750 517 2 0.5564 -2.201184398629529 0.9377502532490309 -16.12715665239122 0 0 0
2751 517 2 0.5564 -2.8037011267680065 0.6213759577566896 -14.77483417980516 0 0 0
417 28 5 -0.271 -1.73156990188914 -4.5984626133734245 -12.753430736200217 0 0 0
4292 1031 2 0.5564 -0.8339698099488365 2.544898089491523 -13.252037355202681 0 0 0
2309 370 2 0.5564 -1.5422128027495101 4.8459980180314615 -12.825022273881483 0 0 0
1845 215 2 0.5564 -4.1875344535047905 2.8396137165026962 -13.914750146271297 0 0 0
1947 249 2 0.5564 -2.98576210422668 -1.422299385273417 -13.189257201317668 0 0 0
154 11 4 0.123 -2.0540410609013757 5.481059350115252 -16.550599533583345 0 0 0
2759 520 2 0.5564 -0.5154843512118218 14.94933867000342 1.6315761306152174 0 0 0
2100 300 2 0.5564 -1.0958686451984652 15.433747927101981 8.977551661521217 0 0 0
411 28 4 0.147 -4.791883173155019 -3.774165875807734 -13.789258261906607 0 0 0
410 28 5 -0.271 -3.7267241038028485 -3.6911896798489803 -13.741749130508609 0 0 0
412 28 5 0.296 -3.0417617090623494 -4.206550517410517 -12.61808411122628 0 0 0
2794 532 1 -1.1128 -5.887883162838984 -0.22610466649103012 -14.030915799542218 0 0 0
2795 532 2 0.5564 -6.685073782719004 -0.025688346770537794 -13.540454542226257 0 0 0
1946 249 2 0.5564 -3.9648242364732083 -0.2752261545803662 -13.056760914231765 0 0 0
1945 249 1 -1.1128 -3.1348625286643657 -0.6055703912621576 -12.712859729430534 0 0 0
2796 532 2 0.5564 -6.192739262058913 -0.716203090170996 -14.79452441690446 0 0 0
4291 1031 1 -1.1128 -0.6338884242055497 1.8243136714923252 -13.84949643433255 0 0 0
2065 289 1 -1.1128 -6.160728054085877 2.6094992194435522 -18.474109865474368 0 0 1
1919 240 2 0.5564 -5.5134323204487155 -3.0177015695601646 -19.049109765427236 0 0 1
1628 143 2 0.5564 -1.760414057043308 1.7993044118907902 -18.348803304177352 0 0 0
2597 466 2 0.5564 -4.403452669202726 -0.9910458030173332 -17.91233333874288 0 0 0
493 33 4 0.147 -15.17504898454093 4.975248734029362 -16.02748229481747 0 0 0
495 33 4 0.123 -16.64919385272107 6.139072440151385 -17.582227831676867 0 0 0
142 10 5 0.296 -16.01892754742859 7.914967710865439 -13.238996470340666 0 0 0
144 10 4 0.123 -16.307863855980475 8.175064594310951 -15.386264210251978 0 0 0
146 10 4 0.123 -16.502747216231633 6.566287561737854 -14.883245748733207 0 0 0
143 10 3 -0.439 -15.960319152726962 7.4145390758644885 -14.709320837206924 0 0 0
145 10 4 0.123 -14.971732127531489 7.155552700799957 -14.982023007603289 0 0 0
141 10 4 0.147 -15.760456617393277 9.847191912995324 -13.989719735194337 0 0 0
139 10 4 0.123 -15.579162097542808 10.926030130358418 -11.712665159675655 0 0 0
147 10 5 -0.271 -15.96209484982257 7.134441885325426 -12.131995307125718 0 0 0
140 10 5 -0.271 -15.794855643141977 9.271934240021418 -13.059185786851137 0 0 0
138 10 5 -0.08699999999999999 -15.601767509329221 9.841186492641924 -11.76318404840088 0 0 0
137 10 5 -0.184 -15.547147343497759 9.031107447574321 -10.626903171642633 0 0 0
148 10 4 0.147 -16.234243263788265 6.0814194658976275 -12.187295587256575 0 0 0
2335 379 1 -1.1128 -10.667595192982544 6.804011408334854 -13.45246822819997 0 0 0
2337 379 2 0.5564 -11.393348059364298 7.392820042732771 -13.245540962989198 0 0 0
2875 559 1 -1.1128 -12.44648648191378 8.261649469777904 -11.54676589178169 0 0 0
2336 379 2 0.5564 -10.120928846949473 6.8115611289320315 -12.666764315221785 0 0 0
2468 423 2 0.5564 -13.369323669885427 8.101935100943964 -19.59046670120401 0 0 0
1704 168 2 0.5564 -9.904752562639981 7.225387449098006 -15.237237631597049 0 0 0
1702 168 1 -1.1128 -9.527829133757312 6.994965825381332 -16.086393949498948 0 0 0
1703 168 2 0.5564 -9.726036957441565 7.744179422248953 -16.64819858326722 0 0 0
2478 426 2 0.5564 -7.8507916567661615 6.3027420355133605 -15.178395171389196 0 0 0
2476 426 1 -1.1128 -7.058917153235627 5.765787391848116 -15.20748707531257 0 0 0
2170 324 1 -1.1128 -8.953890138328788 6.966917268314656 -11.343498321787772 0 0 0
2171 324 2 0.5564 -8.806193393267467 7.8718581822771965 -11.068726694168664 0 0 0
1851 217 2 0.5564 -10.0702038745396 9.901188417800181 -18.015299993818083 0 0 1
2036 279 2 0.5564 -12.540179704466826 7.508995601183259 -16.39530563071043 0 0 0
2037 279 2 0.5564 -11.567704719273268 7.890389727142572 -17.491081940932336 0 0 0
2035 279 1 -1.1128 -12.469512488614598 8.023752463986371 -17.199210646685007 0 0 0
1850 217 2 0.5564 -8.811269029757565 9.063694599169025 -17.940584861169363 0 0 1
1849 217 1 -1.1128 -9.766121275326714 8.996696536830749 -17.94006713644852 0 0 1
2068 290 1 -1.1128 -12.020675857173375 9.41557326644148 -14.091381444902199 0 0 0
2070 290 2 0.5564 -11.553157973995125 10.250470273734972 -14.06676755348097 0 0 0
2477 426 2 0.5564 -6.409914100143911 6.31866902285598 -15.642629298812322 0 0 0
1518 106 2 0.5564 -6.512451858111041 5.352794806137608 -12.08889390304375 0 0 0
1516 106 1 -1.1128 -6.391512734203786 4.766567201833869 -12.835849479176796 0 0 0
1517 106 2 0.5564 -6.620178276421587 5.298632161165963 -13.597985167232059 0 0 0
3818 873 2 0.5564 -9.437808647436434 12.051617306810343 -14.422850957454232 0 0 0
2530 444 1 -1.1128 -9.99021951541165 11.59327794643145 -17.425287067614736 0 0 0
2532 444 2 0.5564 -9.457587419073128 11.754114523065818 -16.646399101766836 0 0 0
1743 181 2 0.5564 -11.546246736630856 12.589345773512113 -13.146237164432643 0 0 0
1741 181 1 -1.1128 -11.202090218191373 12.219629581885126 -13.959316529612613 0 0 0
1742 181 2 0.5564 -11.937552868203799 12.258308821891418 -14.570733268486197 0 0 0
2877 559 2 0.5564 -13.3292659707739 7.891614402749295 -11.549266387681868 0 0 0
2876 559 2 0.5564 -12.21392869926434 8.32137772173117 -10.62016930228727 0 0 0
2069 290 2 0.5564 -12.147188060708062 9.18414664511922 -13.171235683797507 0 0 0
1844 215 2 0.5564 -4.72019289449879 3.827697132980784 -12.898944454235899 0 0 0
2135 312 2 0.5564 -6.718656988364857 10.15346756180538 -17.34471472443942 0 0 0
3185 662 2 0.5564 -1.3538777804522335 -0.6316626216682298 12.462563441106791 0 0 0
1884 228 2 0.5564 -7.123262426508034 11.321379775604205 -15.5883843405279 0 0 0
1882 228 1 -1.1128 -6.224221170845219 11.469353878104398 -15.881744734909386 0 0 0
165 11 4 0.123 -3.557451643391865 6.490689873912522 -12.660117186377262 0 0 0
1717 173 1 -1.1128 -0.5630569789273092 19.86554032680727 -18.34886341924756 0 0 1
155 11 5 -0.271 -0.7015712017009521 6.466143977614049 -15.274649053354407 0 0 0
153 11 5 -0.08699999999999999 -1.9392268800499532 6.000037113955969 -15.590607714594803 0 0 0
157 11 5 0.296 -0.37933394827194067 6.966519269778999 -13.990238536795824 0 0 0
152 11 5 -0.184 -2.9299284810629755 6.031059976821049 -14.632364941766737 0 0 0
162 11 5 -0.271 -1.4355322920306821 7.033114807038687 -12.996389722819064 0 0 0
164 11 5 -0.08699999999999999 -2.7151179169681963 6.49029041974225 -13.342882205960677 0 0 0
163 11 4 0.147 -1.2079361817572354 7.587792052216378 -12.063538408486469 0 0 0
151 11 4 0.134 -3.977876935326626 5.892606564197951 -14.902856992221302 0 0 0
4269 1023 2 0.5564 -0.22801228216291977 5.528852844569755 11.83557696086696 0 0 0
1221 82 4 0.147 -0.8982560066859384 -4.585208768769944 -0.3239967535802149 0 0 0
253 17 4 0.147 -0.8862364950699215 6.465542132468085 -19.359706147947453 0 0 0
252 17 5 -0.271 -1.8541563753874417 6.751622659225697 -19.714922789381376 0 0 0
583 39 4 0.147 -0.07011022106827383 11.98766912117588 -14.99229051464315 0 0 0
2165 322 2 0.5564 -1.7670806867921853 -8.944029639446095 -6.959928754741962 0 0 0
2605 469 1 -1.1128 -1.274464153381329 9.793574354381793 4.103408313592375 0 0 0
2136 312 2 0.5564 -7.255672335122275 10.06029199796565 -18.757098425967015 0 0 0
2134 312 1 -1.1128 -6.940551797233996 9.523224548537504 -18.030125732006532 0 0 0
247 17 5 0.296 -2.851869354105639 5.810349218695263 -19.781785788727912 0 0 0
1883 228 2 0.5564 -5.70992397489585 11.496625023111886 -15.074907417141677 0 0 0
3212 671 2 0.5564 -0.38107248886155126 7.911929307989832 17.059535220483127 0 0 -1
336 23 4 0.147 -4.138799037819724 8.643691483344254 -14.67346805050961 0 0 0
1978 260 1 -1.1128 -5.538043565318 7.305059572881065 -16.738609731444004 0 0 0
1980 260 2 0.5564 -6.095502455259198 8.003131244189872 -17.082364523224076 0 0 0
255 17 4 0.123 -1.2373018467135426 8.712845028720903 -19.942349087931813 0 0 0
1979 260 2 0.5564 -4.7881788350833485 7.28206453275408 -17.33308916511586 0 0 0
254 17 5 -0.08699999999999999 -2.1051146142598327 8.106730048685627 -19.715184801319396 0 0 0
814 55 4 0.123 -17.758753912083012 -14.758461524707801 -10.988000391985393 0 1 0
2790 530 2 0.5564 -13.577408424754275 9.583541935936848 -16.583658609550213 0 -1 1
2158 320 1 -1.1128 -12.30615717011324 19.06523264570735 -18.37159816428008 0 -1 0
2219 340 2 0.5564 -13.072465545872337 13.680824524775401 -11.479090404882285 0 0 0
2218 340 1 -1.1128 -12.191699689880947 13.358812904068595 -11.67090244748291 0 0 0
2220 340 2 0.5564 -11.974353758657509 12.79687171432877 -10.927118438094833 0 0 0
3817 873 1 -1.1128 -8.536692356563295 12.089646789302366 -14.743436448667504 0 0 0
2531 444 2 0.5564 -10.875352285786487 11.85156173833878 -17.168263045310987 0 0 0
2828 543 2 0.5564 -10.059774962004994 17.463985039965763 -14.827396145722581 0 0 0
2827 543 1 -1.1128 -9.560853878093022 16.899783881429077 -15.418147034519201 0 0 0
2829 543 2 0.5564 -8.720767449683267 17.34622281161251 -15.523877361892824 0 0 0
2516 439 2 0.5564 -10.351255671218855 17.095930261725023 -17.319040204824265 0 -1 0
2159 320 2 0.5564 -11.74445568151785 18.30209874779736 -18.50706006058266 0 -1 0
2610 470 2 0.5564 -12.570034743142577 14.978421398382263 -17.764387470524174 0 0 0
2162 321 2 0.5564 -14.819294500912541 19.367321108547326 -14.28570888013802 0 -1 0
2161 321 1 -1.1128 -14.35488480543505 18.562905304013835 -14.054471597866035 0 -1 0
2608 470 1 -1.1128 -13.456380040772705 14.631538490302503 -17.865857182351537 0 0 0
2609 470 2 0.5564 -13.646964568338836 14.729187958898933 -18.79879553378723 0 0 0
2163 321 2 0.5564 -13.587385593132767 18.556020360393745 -14.626423810167585 0 -1 0
1989 263 2 0.5564 -11.452240417535565 19.613799972272293 -13.9687875771778 0 0 0
1987 263 1 -1.1128 -11.329984987574328 18.977172346840426 -13.264521496883566 0 0 0
1988 263 2 0.5564 -12.100563850238393 19.08508215053964 -12.707031125805244 0 0 0
2515 439 1 -1.1128 -10.79471185469109 16.824544208345362 -18.122736705195248 0 -1 0
2517 439 2 0.5564 -10.096037244191693 16.766381315528566 -18.77442889346963 0 -1 0
1934 245 2 0.5564 -13.145569844600095 11.586067695130456 -16.550012266813905 0 0 0
1933 245 1 -1.1128 -12.429409352932709 12.194328431330742 -16.732672808739252 0 0 0
3228 676 2 0.5564 -10.725734712473418 14.283813910134445 -11.408883305170226 0 0 0
1935 245 2 0.5564 -12.864593434588729 13.006664727127342 -16.991432047156884 0 0 0
2788 530 1 -1.1128 -14.089055340935333 10.048855036278493 -15.92189357475899 0 -1 1
4124 975 2 0.5564 -8.74839855177743 15.023313103505311 -12.724186981006754 0 0 1
4123 975 1 -1.1128 -8.362905281358437 14.846068287087043 -13.58221438032126 0 0 1
4125 975 2 0.5564 -8.801871214251792 15.457579913024315 -14.173479287214821 0 0 1
1860 220 2 0.5564 -9.036144554793127 12.607602329277075 -18.78802163011007 0 0 0
3819 873 2 0.5564 -8.288251637292156 13.009562921997773 -14.652533463130474 0 0 0
3226 676 1 -1.1128 -9.855127620843115 14.606131424410245 -11.17567404031295 0 0 0
3227 676 2 0.5564 -9.990571935497893 15.528924363477543 -10.96040743521074 0 0 0
2687 496 2 0.5564 -12.931102875905284 16.79900411098194 -11.287805279947765 0 0 0
2686 496 1 -1.1128 -13.713593904720494 17.315287504350074 -11.481172793627943 0 0 0
2688 496 2 0.5564 -13.624632347332318 17.549004715056302 -12.405128349757428 0 0 0
1671 157 2 0.5564 -10.658923880677433 17.839306762636387 -11.687038545104379 0 -1 0
1669 157 1 -1.1128 -10.952815230426882 17.228619119968286 -11.01107976231976 0 -1 0
2093 298 2 0.5564 -15.322216356721585 14.738489985616235 -10.17813141710999 0 -1 0
2092 298 1 -1.1128 -14.683553574359216 14.76555633679007 -10.890598330228322 0 -1 0
1598 133 2 0.5564 -15.03727427517534 18.139999648190564 19.076436934157062 0 -1 0
2789 530 2 0.5564 -13.646531248827259 9.854190792558594 -15.095751885492376 0 -1 1
1597 133 1 -1.1128 -14.245323588005734 17.866967515370593 19.539577728848567 0 -1 0
1599 133 2 0.5564 -14.211153051800617 18.432920561478912 -19.68921456368339 0 -1 1
1858 220 1 -1.1128 -8.378858225062826 13.121704710099113 -19.25696205955649 0 0 0
2205 335 2 0.5564 -7.525342102484143 18.525241966073917 -18.938285462759644 0 -1 0
2203 335 1 -1.1128 -7.298429296159387 17.652540790007485 -19.259431976841316 0 -1 0
2204 335 2 0.5564 -7.978484183725705 17.44876459014231 -19.90148527351181 0 -1 0
2081 294 2 0.5564 -6.201904098864855 -18.052424341027567 -16.127964325637638 0 0 0
175 12 4 0.123 -3.9746219354248353 19.35487071511975 -13.099324689786439 0 -1 0
2229 343 2 0.5564 -6.556890761723771 16.975376886345533 -17.716620565780712 0 -1 0
2227 343 1 -1.1128 -6.507695309304298 16.57565753073348 -16.848268048316292 0 -1 0
1567 123 1 -1.1128 -5.177361436105632 17.842793608529767 -14.660863055109457 0 0 0
2370 390 2 0.5564 -6.443123170252868 12.851589009420431 -16.823433625193655 0 -1 0
2368 390 1 -1.1128 -6.525419530712441 13.668667138054653 -17.315208348816284 0 -1 0
1873 225 1 -1.1128 -2.8804706741728507 -19.315958650923864 -16.476444359971897 0 1 0
1874 225 2 0.5564 -2.5303599740598965 -18.956190060280726 -15.661446870635265 0 1 0
1875 225 2 0.5564 -2.1109054028167504 -19.450404396020307 -17.029549648547256 0 1 0
1568 123 2 0.5564 -5.128188850215138 17.2104610339374 -13.943946455562909 0 0 0
1569 123 2 0.5564 -5.578447856566766 17.357462400507334 -15.381845127548305 0 0 0
2507 436 2 0.5564 -6.667271528235208 15.0630749417029 -13.350685013622316 0 -1 0
2692 498 1 -1.1128 -4.297213952706005 13.795121312743726 -18.503055995841343 0 0 0
2693 498 2 0.5564 -3.89463053069849 13.160903482911442 -19.096289603279416 0 0 0
2228 343 2 0.5564 -6.531901445704652 15.633580948116338 -17.01601062380011 0 -1 0
2694 498 2 0.5564 -3.6859147105025745 13.858975983120322 -17.769252439099773 0 0 0
2710 504 1 -1.1128 -2.653798310080844 14.887048148010884 -16.511477483813213 0 -1 0
2712 504 2 0.5564 -2.129600047008825 15.550981177361564 -16.063547971974792 0 -1 0
2711 504 2 0.5564 -2.5004526946298564 15.048099650162703 -17.442487300920064 0 -1 0
2508 436 2 0.5564 -5.301126717927415 14.444615804317236 -13.558174205276433 0 -1 0
2506 436 1 -1.1128 -5.731862827578777 15.249124004983688 -13.269271509994082 0 -1 0
2667 489 2 0.5564 -3.573614609681453 17.70979599019661 -15.335301290863084 0 0 1
2665 489 1 -1.1128 -2.6333686812354316 17.885307893756025 -15.372246755268538 0 0 1
2666 489 2 0.5564 -2.5611488794935653 18.703938981555893 -15.863020830178716 0 0 1
556 38 4 0.134 -1.32239122116602 15.321957455018842 18.51508194208043 0 0 -1
124 9 4 0.123 -2.0445473092665427 -19.49296177998888 19.356276368141337 0 0 0
2572 458 1 -1.1128 -0.5487673521176412 19.479224419402204 -12.958532004240276 0 0 0
559 38 4 0.123 -3.0792741420784777 15.597782485606952 -19.813806507903497 0 0 0
558 38 5 -0.08699999999999999 -3.1386244209841903 16.2308050091267 19.351968314534012 0 0 -1
4247 1016 2 0.5564 -1.2836489566277125 -0.3845171469328519 15.22763634504951 0 0 0
170 12 5 -0.271 -6.48078957510776 18.660667199274148 -11.826135659204812 0 -1 0
171 12 4 0.147 -6.344686316690596 17.737891267669816 -12.413558391874354 0 -1 0
173 12 3 -0.439 -4.01913689387301 19.286943734973285 -12.028399257727102 0 -1 0
176 12 4 0.123 -3.2569163944883357 19.97979890304673 -11.566941897057019 0 -1 0
865 58 4 0.123 -2.822642953498648 15.914579093671575 -12.87626819219591 0 -1 0
2533 445 1 -1.1128 -2.635069468549552 12.135597441852779 19.589223601588177 0 0 -1
2369 390 2 0.5564 -5.69639778537594 13.749453450552325 -17.786831557490896 0 -1 0
1859 220 2 0.5564 -7.8460319836647825 13.51678610424598 -18.566861594838034 0 0 0
1451 97 4 0.123 -0.44339755218028887 14.887722253231969 -9.421769232472673 0 -1 0
579 39 4 0.123 -1.0727197784973406 10.860472731118747 -16.82751345992993 0 0 0
786 53 4 0.147 -11.756762597908573 -18.114274108121812 -3.7690340011759353 0 0 0
785 53 5 -0.271 -12.578092641801284 -18.81224927908297 -3.5792059917064107 0 0 0
706 48 4 0.134 -12.272570722429606 -12.772585945074818 -12.041820164759054 0 0 0
46 4 4 0.134 -8.832724430284925 -15.371468628484156 -6.408810462268481 0 0 0
49 4 4 0.123 -10.843588840246907 -16.05818313438697 -5.41058478441514 0 0 0
166 12 4 0.134 -9.090904594764838 -19.496657246906427 -10.948575556731141 0 0 0
167 12 5 -0.184 -8.074376525300142 -19.725454732814725 -11.092214129881835 0 0 0
2286 362 2 0.5564 -7.959249988928062 -12.946560081256596 -10.630164877830278 0 0 0
2284 362 1 -1.1128 -8.621845533215241 -13.146250540840025 -11.291468609592242 0 0 0
2285 362 2 0.5564 -9.454562087228727 -13.082398866715751 -10.823774354447815 0 0 0
47 4 5 -0.184 -9.38361526990383 -16.04913343516439 -6.966617358057738 0 0 0
57 4 5 -0.271 -9.79419013406333 -17.197346635823486 -8.960340785418744 0 0 0
59 4 5 -0.08699999999999999 -8.916303671282646 -16.493838091033933 -8.208276507763735 0 0 0
58 4 4 0.147 -9.521550357603708 -17.54460220315239 -9.954384555366145 0 0 0
60 4 4 0.123 -7.861715521116294 -16.343512685071797 -8.513460373098374 0 0 0
52 4 5 0.296 -11.060673477502 -17.49750506045997 -8.473129477037922 0 0 0
56 4 4 0.123 -12.702665664558873 -17.985773049522347 -9.73834589468125 0 0 0
168 12 5 -0.08699999999999999 -7.787825863966906 19.054636888003778 -11.619906077267771 0 -1 0
50 4 5 -0.271 -11.42744794584919 -17.139643878938422 -7.207348522210014 0 0 0
48 4 5 -0.08699999999999999 -10.58459541920559 -16.387324721638016 -6.422977499552147 0 0 0
51 4 4 0.147 -12.451485256652823 -17.284561725359033 -6.868413726737518 0 0 0
55 4 4 0.123 -12.344510580783043 -19.18872777316162 -8.545778035530462 0 0 0
53 4 3 -0.439 -11.897071216655023 -18.489164285647334 -9.257999452563881 0 0 0
54 4 4 0.123 -11.377950887682191 -19.125011530598233 -9.960736200621305 0 0 0
1938 246 2 0.5564 -7.76768871605969 -18.663719575291672 -8.160080523030317 0 0 0
1937 246 2 0.5564 -8.23001096182905 19.924198042640754 -8.450212665858812 0 -1 0
719 48 5 -0.08699999999999999 -12.025898362337934 -13.837653151773573 -10.143373494921866 0 0 0
720 48 4 0.123 -12.639415054834657 -14.70582722270404 -10.413717279599457 0 0 0
707 48 5 -0.184 -11.93817948484006 -12.66325849016766 -10.97131195179257 0 0 0
784 53 4 0.123 -11.250336438942469 19.376005090700932 -3.3116571936459644 0 -1 0
783 53 5 -0.08699999999999999 -12.272904290760753 19.789780964625127 -3.4690879262629375 0 -1 0
2918 573 2 0.5564 -8.113779728647271 13.699195227747063 18.87889144258007 0 0 0
2761 521 1 -1.1128 -0.729483685684306 14.3454108559688 3.2483798496890146 0 0 0
179 12 5 -0.08699999999999999 -7.103660771106718 -18.798001302245474 -10.850726466561781 0 0 0
1740 180 2 0.5564 -7.666033459061823 -13.339130727358725 -5.008328123845806 0 0 0
178 12 4 0.147 -4.980394096864555 -18.505711308954698 -10.781628467757336 0 0 0
180 12 4 0.123 -7.304280933870623 -17.83412037670358 -10.449728513988605 0 0 0
177 12 5 -0.271 -5.7842250760542955 -19.189126738941606 -11.099987564567922 0 0 0
1540 114 1 -1.1128 -6.413073689221877 -12.826686129590145 -9.740586607683966 0 0 0
1542 114 2 0.5564 -5.651463252581125 -12.541601273993992 -10.245470533609529 0 0 0
2804 535 2 0.5564 -5.987999137345437 -14.12614530348958 -8.693810474595562 0 0 0
3420 740 2 0.5564 -2.6743024843140266 -15.171032937495623 -7.529280231825965 0 0 0
2803 535 1 -1.1128 -5.93502225339778 -14.636426771763196 -7.885702728230803 0 0 0
2805 535 2 0.5564 -6.534921325178312 -14.195796120531908 -7.28387434361506 0 0 0
1936 246 1 -1.1128 -7.663179493624576 -19.569392511058094 -7.868419388167147 0 0 0
2527 443 1 -1.1128 -3.997667232416389 -15.602313935539174 -10.328113655721914 0 1 0
2529 443 2 0.5564 -4.774722352813299 -15.289713483477817 -9.864758373449352 0 1 0
2528 443 2 0.5564 -3.2617595290624233 -15.2569283511317 -9.822761831083952 0 1 0
2013 271 2 0.5564 -3.1491333898260216 -17.58847286685892 -9.817411047670651 0 1 0
2894 565 2 0.5564 -4.444281565555182 -13.052590052771343 -12.193468414016841 0 0 0
1529 110 2 0.5564 -0.8418286128657455 -12.254095190331867 -7.354057316503763 0 0 0
2240 347 2 0.5564 -4.107263017247964 -17.579791099951013 -7.103199184234474 0 0 0
2241 347 2 0.5564 -4.941782759926918 -16.320486221360802 -7.005101805867612 0 0 0
2895 565 2 0.5564 -4.377093322475887 -14.443587716924405 -11.599745987954007 0 0 0
2011 271 1 -1.1128 -2.894989500316122 -18.212470662584494 -9.137507105186778 0 1 0
2012 271 2 0.5564 -2.035928902877748 -18.531733042594972 -9.413764307718138 0 1 0
1528 110 1 -1.1128 -1.4924400651318483 -12.532170142924992 -7.998736213800383 0 0 0
1530 110 2 0.5564 -1.404983297373562 -11.902940865357815 -8.714734592331943 0 0 0
1604 135 2 0.5564 -4.130979996112971 -19.246377700185764 -8.307865999517382 0 0 0
1603 135 1 -1.1128 -4.778560333146292 -19.352585415431363 -7.611022073900424 0 0 0
1605 135 2 0.5564 -5.561881177398247 -19.67306680883782 -8.05815956417144 0 0 0
2239 347 1 -1.1128 -4.15155249330567 -16.733880978343745 -6.657434303066981 0 0 0
3631 811 1 -1.1128 -0.3593513957729393 -18.76591434020908 -10.207376240572133 0 0 0
3418 740 1 -1.1128 -1.9894768828884783 -15.087399565634165 -8.192794473203156 0 0 0
3419 740 2 0.5564 -1.770396835377304 -14.155611619067994 -8.195440297698447 0 0 0
3632 811 2 0.5564 -0.6297921453548168 -19.195064444058442 -11.01911746636027 0 0 0
1738 180 1 -1.1128 -7.323967957604934 -13.294393520359572 -5.901200759905029 0 0 0
848 57 3 -0.439 -0.9953830978619008 -13.950674612068697 -11.674951858492136 0 0 0
3346 716 1 -1.1128 -0.18833255593495907 3.852907210772661 -0.9817104120678661 0 0 0
2574 458 2 0.5564 -0.05209737428777357 18.89133184952799 -12.389380815054938 0 0 0
3880 894 1 -1.1128 -0.1154026322052107 -19.23157424415322 -1.3769770919872923 0 1 0
2737 513 1 -1.1128 -0.48576440987982966 19.85975286461595 -5.918447292867414 0 -1 0
2738 513 2 0.5564 -1.066024819577683 -19.467394897539794 -5.562358010257539 0 0 0
1767 189 2 0.5564 -1.6071077953571131 -17.395634420084864 -4.694475625068949 0 0 0
1766 189 2 0.5564 -3.015511036799696 -17.621304460853455 -5.201790628394036 0 0 0
1765 189 1 -1.1128 -2.2206507097760975 -18.087266130381003 -4.942351616720739 0 0 0
851 57 4 0.123 -1.9520432920198252 -13.493312759233293 -11.725806729930989 0 0 0
373 25 4 0.147 -9.509624242337779 -18.268429577462914 -2.306646979637734 0 1 0
628 42 4 0.147 -5.836317623054139 -17.38560046560158 12.29532181226266 0 0 -1
2045 282 2 0.5564 -5.929046033205574 -19.615986435831918 -4.712691083090987 0 0 0
587 40 5 -0.184 -0.10243758289290575 -16.552127436415443 11.623336897654134 0 0 0
1963 255 1 -1.1128 -10.108940976298694 -4.2207778772099465 -12.149190364978248 0 0 0
2663 488 2 0.5564 -13.063885219316314 -8.706999827493437 -12.03167156617344 0 0 1
1964 255 2 0.5564 -10.417369057713488 -4.872714757611825 -11.519839744587678 0 0 0
2691 497 2 0.5564 -11.104403578290672 -7.57965510974048 -11.37126288318855 0 0 0
1822 208 1 -1.1128 -13.859867748783765 -5.640673789974372 -11.319442139683183 0 0 0
717 48 5 -0.271 -11.412972517130891 -13.788580679384372 -8.919711569817801 0 0 0
718 48 4 0.147 -11.158404817752686 -14.695641877484341 -8.40498227230852 0 0 0
712 48 5 0.296 -10.73554788314199 -12.610299222631614 -8.518436391979668 0 0 0
715 48 4 0.123 -9.886947686248547 -11.801124357667433 -6.630599600535887 0 0 0
1823 208 2 0.5564 -13.480770854226234 -6.503561766705049 -11.152284501111454 0 0 0
2662 488 1 -1.1128 -12.89938400870111 -8.180163299237217 -11.249613754605823 0 0 1
709 48 4 0.123 -11.32548879065957 -10.559317062175156 -11.157694287264947 0 0 0
708 48 5 -0.08699999999999999 -11.303325781200463 -11.50662711550368 -10.59846373484151 0 0 0
710 48 5 -0.271 -10.589822952942045 -11.51846160999741 -9.41394340482787 0 0 0
714 48 4 0.123 -10.697963006265239 -13.418392711060218 -6.551123152290607 0 0 0
713 48 3 -0.439 -10.765023398029593 -12.364260718407719 -7.01186116030707 0 0 0
716 48 4 0.123 -11.661444068770153 -11.863267007409718 -6.7251492794602274 0 0 0
711 48 4 0.147 -10.000618355122523 -10.668265254772795 -9.141443364392623 0 0 0
2664 488 2 0.5564 -13.479376473548776 -8.550614801938492 -10.584327180618391 0 0 1
531 36 4 0.147 -9.652558155721854 -5.309866554780826 -9.065965755042896 0 1 0
535 36 4 0.123 -10.799030874533058 -7.792056438709513 -8.408741356065134 0 1 0
533 36 3 -0.439 -11.168273762209088 -7.1828735290975265 -7.5941701617060255 0 1 0
530 36 5 -0.271 -10.661675326213164 -4.986553178696146 -8.820159213651454 0 1 0
532 36 5 0.296 -11.488890015412652 -5.791329751866937 -8.045440585374196 0 1 0
2144 315 2 0.5564 -8.595595114436119 -9.22379184527071 -10.03141408711844 0 0 0
538 36 4 0.147 -13.43878783564747 -5.850567465477797 -7.261495597719983 0 1 0
537 36 5 -0.271 -12.705332818030916 -5.1795930017163965 -7.6993564684127 0 1 0
534 36 4 0.123 -11.949929559346762 -7.73040739636749 -7.0794455741446685 0 1 0
1824 208 2 0.5564 -13.31007098128785 -5.036305366016198 -10.820749689663 0 0 0
536 36 4 0.123 -10.28164443342465 -7.128866282414866 -6.982187594438178 0 1 0
539 36 5 -0.08699999999999999 -13.056176940279533 -3.871872990350671 -8.07364763806827 0 1 0
540 36 4 0.123 -14.149480323654913 -3.6467697363383365 -7.973702375454513 0 1 0
26 2 4 0.123 -9.717642722088598 -9.899097131808604 -4.698993137060074 0 0 0
1580 127 2 0.5564 -4.583332950541174 -10.888189490332225 -11.4049496084925 0 0 0
2420 407 2 0.5564 -6.638357410437057 -9.918513851381183 -11.623753490803722 0 0 0
392 27 5 -0.184 -2.391938162362997 -9.076950067112614 -4.741832870977694 0 0 0
2164 322 1 -1.1128 -1.45215866720557 -9.068296140038488 -7.855257420570178 0 0 0
397 27 5 0.296 -0.43705210047249865 -7.2442661334895435 -3.847004598701984 0 0 0
1579 127 1 -1.1128 -4.077032172571875 -11.656393306019782 -11.140839359969037 0 0 0
1739 180 2 0.5564 -7.251476523858586 -12.357565571687305 -6.083766362592035 0 0 0
2860 554 1 -1.1128 -6.905090804367533 -6.650190851604155 -10.734647783325391 0 0 1
1541 114 2 0.5564 -6.385100011552739 -12.296577117664063 -8.944073107198292 0 0 0
2005 269 1 -1.1128 -4.853282958214806 -10.790012856923612 -7.766380858910715 0 0 0
2007 269 2 0.5564 -4.062382450150528 -11.301996300230904 -7.5973213477220805 0 0 0
1539 113 2 0.5564 -7.781489359825341 -9.89818496441895 -8.144555494931879 0 0 0
1537 113 1 -1.1128 -7.570433689722117 -10.167033776228132 -7.2504594945456144 0 0 0
2143 315 1 -1.1128 -7.720162894842206 -9.086174069534986 -9.669597008574033 0 0 0
1538 113 2 0.5564 -6.635770226557604 -9.98212442351621 -7.158565139385261 0 0 0
2862 554 2 0.5564 -7.353415375670483 -5.819594774013798 -10.575440149213165 0 0 1
1714 172 1 -1.1128 -5.057362429410875 -6.066366417340423 -7.878727029167257 0 0 0
2024 275 2 0.5564 -1.7823752376962783 -10.028888730592643 -9.416347679030935 0 1 0
1581 127 2 0.5564 -3.2434713110048974 -11.300300282947621 -10.833258773252577 0 0 0
79 6 4 0.123 -8.16053129479764 -7.572631727263667 -4.901019161387188 0 0 0
1716 172 2 0.5564 -4.120693507654351 -6.207272218866704 -7.7407828123100435 0 0 0
1715 172 2 0.5564 -5.431242126481593 -6.058836535871587 -6.997597606453501 0 0 0
2145 315 2 0.5564 -7.47903257928381 -8.204422879415192 -9.95350335330716 0 0 0
2914 572 1 -1.1128 -4.354178307311533 -8.666068433118381 -9.381315036398146 0 0 0
2916 572 2 0.5564 -4.006491795506288 -7.775110328861663 -9.342077846290236 0 0 0
2023 275 1 -1.1128 -1.6208417783214601 -10.714544993597741 -10.064432704375317 0 1 0
2025 275 2 0.5564 -0.7967912335103504 -10.461904460685686 -10.480780204190545 0 1 0
2006 269 2 0.5564 -4.57656374706424 -10.120423962544196 -8.391927813098958 0 0 0
2915 572 2 0.5564 -5.294862015785916 -8.5631515283224 -9.237252170048654 0 0 0
2131 311 1 -1.1128 -2.129297228566208 -6.356251027791481 -8.880551171829941 0 0 0
2132 311 2 0.5564 -1.7401185557930867 -7.208421010083663 -8.684138101867362 0 0 0
395 27 5 -0.271 -1.6737679524752633 -6.871362997639655 -4.375090150545128 0 0 0
396 27 4 0.147 -1.7331049728388113 -5.797751433515903 -4.661879323880712 0 0 0
76 6 4 0.134 -7.183820756351131 -5.383863929836257 -5.7168652964980655 0 0 0
77 6 5 -0.184 -6.663090239102491 -5.795033365507986 -4.880931048946134 0 0 0
416 28 4 0.123 -4.268970694526143 -4.878781356098565 -10.927927706437652 0 0 0
393 27 5 -0.08699999999999999 -2.6755014821247727 -7.757407116256928 -4.670110488059108 0 0 0
394 27 4 0.123 -3.672949095036019 -7.341757596811551 -4.7853508959592475 0 0 0
78 6 5 -0.08699999999999999 -7.3245730301359435 -6.976953844781909 -4.427679610219385 0 0 0
89 6 5 -0.08699999999999999 -5.508617407469058 -5.182436972271665 -4.359934089707882 0 0 0
4267 1023 1 -1.1128 -0.526658149336066 5.250789642496448 12.7014426032547 0 0 0
480 32 4 0.123 -18.473741564301225 4.327535705279208 -9.912474010070316 0 0 0
466 32 4 0.134 -16.50659381741927 2.941921385065645 -10.519233446318172 0 0 0
477 32 5 -0.271 -17.274819140591227 5.479311107619307 -8.578939654734128 0 0 0
478 32 4 0.147 -18.153115503957405 6.084337304341052 -8.377946870363777 0 0 0
285 19 4 0.123 -13.013432561462587 1.7567748768546698 -10.02697451651885 0 0 0
283 19 4 0.147 -13.910317400103013 1.0797566858158811 -7.710708252325003 0 0 0
479 32 5 -0.08699999999999999 -17.487426226803514 4.5131496046350446 -9.519402901558982 0 0 0
1502 101 2 0.5564 -9.46207084270804 3.5683574269131775 -12.704927338901971 0 0 0
1503 101 2 0.5564 -8.000575287010003 3.936344478863194 -12.848145616460144 0 0 0
1501 101 1 -1.1128 -8.579621202515662 3.2034828476941013 -12.638738156416457 0 0 0
2593 465 1 -1.1128 -11.283975200480562 4.261520709923025 -12.586441685596219 0 0 1
2594 465 2 0.5564 -11.159148391404937 5.18901744494999 -12.787438996668932 0 0 1
529 36 4 0.123 -10.339366352449268 -3.0041397752709296 -9.81388397294115 0 1 0
528 36 5 -0.08699999999999999 -10.979852398860357 -3.6379247615089483 -9.202071725663147 0 1 0
2328 376 2 0.5564 -8.584193078753742 1.616115989189267 -11.578123756784045 0 0 0
526 36 4 0.134 -12.482678295242518 -2.0200620842383388 -9.070971243609023 0 1 0
527 36 5 -0.184 -12.175101907205617 -3.0472043847308568 -8.798046896682608 0 1 0
2311 371 1 -1.1128 -8.815790134373573 -2.9866126932963857 -6.421494230668392 0 0 0
2326 376 1 -1.1128 -8.406766746102452 0.7302949571455603 -11.261781171939843 0 0 0
2327 376 2 0.5564 -8.739888340413497 0.1575456797141371 -11.952592360304953 0 0 0
2345 382 2 0.5564 -10.202007829927764 2.904003364356005 -8.191914958872832 0 0 0
2312 371 2 0.5564 -9.49743877000683 -3.5558540683147464 -6.7786373072103565 0 0 0
2313 371 2 0.5564 -8.221034321459875 -2.834496740060366 -7.155904231214604 0 0 0
2344 382 1 -1.1128 -9.846748961327044 3.7087392879097556 -7.814525224332292 0 0 0
2931 577 2 0.5564 -10.2171695789008 4.728519257156114 -6.402151673830532 0 0 0
1785 195 2 0.5564 -7.299535851228342 1.1943189485178005 -9.509125094326015 0 0 0
282 19 5 -0.271 -12.872136785232527 0.9402541324609683 -7.931502545110115 0 0 0
284 19 5 -0.08699999999999999 -12.46520051093547 1.1846559476126497 -9.268864936655248 0 0 0
271 19 4 0.134 -11.014138006230356 0.7976787088120463 -10.76044355273228 0 0 0
272 19 5 -0.184 -11.241481868036734 0.7783184664121852 -9.718909380799367 0 0 0
273 19 5 -0.08699999999999999 -10.381347630863283 0.2703657988623317 -8.799074310424446 0 0 0
274 19 4 0.123 -9.29930126684285 0.23978082537506643 -9.00419921702126 0 0 0
2142 314 2 0.5564 -9.173895188324613 -2.145938667856062 -13.032896572249026 0 0 0
2140 314 1 -1.1128 -8.95355371713434 -1.2283132309770233 -13.193037089008989 0 0 0
2346 382 2 0.5564 -8.928134188204135 3.5058225618266214 -7.637880153304902 0 0 0
277 19 5 0.296 -12.007656853884772 0.26454125648038734 -7.0137343212412775 0 0 0
276 19 4 0.147 -10.008700675276241 -0.47905097297337873 -6.832085988768354 0 0 0
275 19 5 -0.271 -10.76067740741541 -0.033713938473720825 -7.508947109058396 0 0 0
1784 195 2 0.5564 -6.839914520845767 1.7481296148348984 -8.177232814919915 0 0 0
1792 198 1 -1.1128 -7.612203680020233 -1.7896005570643547 -9.02032575556483 0 0 0
1793 198 2 0.5564 -7.786986427435377 -1.6048203949869744 -9.943114521481018 0 0 0
2029 277 1 -1.1128 -7.450817740793399 2.9119804738177995 -6.89386184827237 0 0 0
2030 277 2 0.5564 -7.42052801356133 2.262395327034019 -6.191470556574651 0 0 0
2435 412 2 0.5564 -9.555566516363394 -2.6740091741724665 -4.818344580408719 0 0 0
4 1 4 0.123 -12.8358788103532 4.946246574026278 -4.375670087063417 0 0 0
3 1 5 -0.08699999999999999 -13.653905956121829 5.290930946392627 -3.800373171187214 0 0 0
2308 370 1 -1.1128 -1.4774924412680486 4.040413536419425 -12.31211223265466 0 0 0
418 28 4 0.147 -1.2911841701547233 -5.240141853482931 -12.046568844075168 0 0 0
414 28 4 0.123 -2.949427119407874 -3.9817087274325553 -10.447255292843012 0 0 0
1594 132 1 -1.1128 -5.038976383879586 -3.3837258028076955 -7.664624847022752 0 0 0
1595 132 2 0.5564 -5.253169856889185 -4.28178847362741 -7.917283592272897 0 0 0
2133 311 2 0.5564 -1.3840975669587938 -5.79683880250932 -9.099565456799318 0 0 0
2190 330 2 0.5564 -2.2939530523923173 -4.822954103453855 -7.255253434858474 0 0 0
4254 1018 2 0.5564 -1.0284930618546826 -3.983644623119362 7.193903658870629 0 0 0
111 8 4 0.147 -5.991667714035225 7.675712939708429 -9.419504810427439 0 0 0
3399 733 2 0.5564 -3.602450596078421 0.010328244575108895 -7.6248854948789 0 0 0
1596 132 2 0.5564 -5.248595661568127 -2.860319065759844 -8.438147298973659 0 0 0
413 28 3 -0.439 -3.6539094004745936 -4.106360928825547 -11.267988033423784 0 0 0
1783 195 1 -1.1128 -6.757158298915638 0.9847611195593511 -8.748767404972666 0 0 0
109 8 4 0.123 -6.894412305320231 5.300025038839996 -9.260983072622606 0 0 0
415 28 4 0.123 -4.237069120232412 -3.2009513562847705 -11.317908791265783 0 0 0
1794 198 2 0.5564 -7.433640544056196 -0.9324164264789587 -8.633567016860027 0 0 0
3855 885 2 0.5564 -2.710859913674491 0.2491096526223687 -11.177083211605302 0 0 0
1810 204 1 -1.1128 -5.469654788804687 -1.4474671505249044 -5.103732789943724 0 0 0
1812 204 2 0.5564 -5.67361812021751 -2.3088472718339688 -5.46795117634126 0 0 0
2772 524 2 0.5564 -3.9359370651361383 -0.3004057129558266 -9.552800387535859 0 0 0
3853 885 1 -1.1128 -2.3123781633275886 0.40491018513828453 -10.320829524456098 0 0 0
1673 158 2 0.5564 -0.8279878761712541 1.6547202068350861 -10.284100732889666 0 0 0
2770 524 1 -1.1128 -4.60895958825351 -0.6670223725186879 -8.979333086120365 0 0 0
2771 524 2 0.5564 -5.31178687624433 -0.01726329167394813 -8.9882095033209 0 0 0
108 8 5 -0.08699999999999999 -5.807396734976251 5.492055326234244 -9.43422515846989 0 0 0
3854 885 2 0.5564 -1.7350563370367036 -0.3463248345172931 -10.1845307777215 0 0 0
2031 277 2 0.5564 -6.961146781902027 3.6594589965262023 -6.550743725786025 0 0 0
4172 991 2 0.5564 -2.3777576963590836 -2.5695196824316704 -4.605407160773139 0 0 0
1811 204 2 0.5564 -4.669054618382213 -1.1796027054154774 -5.554864496450369 0 0 0
2189 330 2 0.5564 -3.2534927151437505 -3.809070641212626 -6.6694044277938564 0 0 0
3397 733 1 -1.1128 -3.314796394557395 0.09721485222762624 -6.716074410946343 0 0 0
2188 330 1 -1.1128 -2.415479001738307 -4.241350464199034 -6.504786643724704 0 0 0
3398 733 2 0.5564 -2.3622716347126738 0.011875654150140915 -6.756640782962539 0 0 0
106 8 4 0.134 -5.308413457762916 3.3931620910002973 -9.70270744085711 0 0 0
1674 158 2 0.5564 -0.5998276435241842 3.05771356218436 -10.80510714182536 0 0 0
4321 1041 1 -1.1128 -0.5893612206097768 0.11259869090323928 -7.079192681868512 0 0 0
90 6 4 0.123 -4.843717623784747 -4.604892528427727 -5.061619882716577 0 0 0
379 26 4 0.123 -0.1188839773917276 -15.025119216877666 19.53680902972787 0 0 0
1672 158 1 -1.1128 -0.2075054734547523 2.382833302660287 -10.251165124568375 0 0 0
961 65 4 0.134 -0.2541140435556694 -2.1794497112004336 18.28660555737237 0 0 -1
3019 607 1 -1.1128 -0.630407281265291 -1.5641929091848736 -9.94177833936912 0 0 0
4323 1041 2 0.5564 -0.41016916621964467 -0.020029554813690766 -6.14831578588373 0 0 0
1220 82 5 -0.271 -0.15207854020880274 -5.1194741206602234 0.23230300799528314 0 0 0
149 10 5 -0.08699999999999999 -15.639593917492155 7.708829005267557 -10.89314091239735 0 0 0
136 10 4 0.134 -15.202448954251862 9.373128588162873 -9.646269110117329 0 0 0
150 10 4 0.123 -15.399798074284234 7.0689470856254015 -10.044223183956495 0 0 0
472 32 5 0.296 -16.023565544499615 5.704843992242498 -7.9713707938006255 0 0 0
470 32 5 -0.271 -14.99251014863254 4.8635470428753225 -8.29045932945909 0 0 0
467 32 5 -0.184 -16.405994172209702 3.716659154191362 -9.801536008002238 0 0 0
468 32 5 -0.08699999999999999 -15.166114382747466 3.879600831254843 -9.223530889312425 0 0 0
469 32 4 0.123 -14.307710406794664 3.4228030493060575 -9.705646222241574 0 0 0
2172 324 2 0.5564 -9.481221414606118 6.585941265333382 -10.641351021966162 0 0 0
339 23 4 0.123 -5.624670113970089 7.875037550150352 -12.258460840669843 0 0 0
476 32 4 0.123 -16.510487053228633 7.100709682987844 -6.446949933904359 0 0 0
473 32 3 -0.439 -15.743880871950534 6.96667550937691 -7.18340906142804 0 0 0
475 32 4 0.123 -15.788969598544746 7.870741127243866 -7.783979702830559 0 0 0
474 32 4 0.123 -14.76635973435667 6.870156193685981 -6.724277547799586 0 0 0
2930 577 2 0.5564 -9.674951481794915 5.975673407529013 -5.736944013336634 0 0 0
2929 577 1 -1.1128 -10.411489350829235 5.364761395679148 -5.713916551723205 0 0 0
1 1 4 0.134 -12.523552673394809 7.044828988933458 -3.2376721749921873 0 0 0
471 32 4 0.147 -14.045792264030105 4.951964090547572 -7.802273727089804 0 0 0
15 1 4 0.123 -14.32781371467993 7.984700661740619 -1.7578343346499907 0 0 0
2561 454 2 0.5564 -11.69540413904809 8.049482537495473 -7.92585650783247 0 0 0
1544 115 2 0.5564 -10.481911913943295 4.971207886501166 -9.007718636841517 0 0 0
1543 115 1 -1.1128 -10.922256903797313 5.627939905165554 -9.547191702222118 0 0 0
1545 115 2 0.5564 -11.253154832328429 5.137656949919648 -10.299761309261283 0 0 0
2560 454 1 -1.1128 -12.106917043699848 7.90573639260093 -8.7780454283517 0 0 0
679 46 4 0.123 -13.945602953070797 11.78171018564095 -8.9068668881307 0 0 0
677 46 5 -0.184 -13.371805268282984 12.917365660300952 -7.098232147121848 0 0 0
2562 454 2 0.5564 -11.754148649598383 7.067477895024252 -9.076556757099002 0 0 0
678 46 5 -0.08699999999999999 -13.606161194299665 11.729027356377937 -7.855750740048164 0 0 0
1730 177 2 0.5564 -6.937062814065235 10.624639661928512 -7.196361208983175 0 0 0
1729 177 1 -1.1128 -7.537995155918535 10.081342487863294 -6.686517774302051 0 0 0
1957 253 1 -1.1128 -8.877516717070884 9.388582246874652 -9.419557611287718 0 0 0
1959 253 2 0.5564 -8.820135155604852 9.432627904336107 -8.465094856384438 0 0 0
687 46 5 -0.271 -13.019826573172264 11.68140724845967 -5.025302114056509 0 0 0
682 46 5 0.296 -13.244178163511432 10.491451808527785 -5.8020247994206136 0 0 0
680 46 5 -0.271 -13.511070285824923 10.526519847316095 -7.173706121161134 0 0 0
683 46 3 -0.439 -13.167826263061892 9.204385245596097 -4.927298135552167 0 0 0
1731 177 2 0.5564 -7.510184434315737 10.454530628811815 -5.805501873519797 0 0 0
1958 253 2 0.5564 -9.187782704308853 10.255364417271567 -9.681579559106035 0 0 0
688 46 4 0.147 -13.089230850008315 11.57782211443488 -3.920974932361739 0 0 0
1966 256 1 -1.1128 -8.32202853371936 7.24543030917314 -5.587193843127746 0 0 0
684 46 4 0.123 -12.737384000903845 9.383654566942058 -3.9235707272789804 0 0 0
681 46 4 0.147 -13.597813317403425 9.635836595515133 -7.7622323496975785 0 0 0
1967 256 2 0.5564 -8.075933373005961 8.109976262639295 -5.916176005615266 0 0 0
686 46 4 0.123 -12.498480012161568 8.455621965614057 -5.3342270390825695 0 0 0
341 23 4 0.123 -6.424398476579274 7.839611526971268 -13.838104000005982 0 0 0
1914 238 2 0.5564 -10.198734025055252 6.353563250446179 -3.8260618081108633 0 0 0
115 8 4 0.123 -3.7732235332064277 8.950299381601749 -10.11810256754572 0 0 0
2700 500 2 0.5564 -9.917124044699138 8.935550932317966 -3.923131703366891 0 0 0
2699 500 2 0.5564 -9.363160056910198 10.342647964608226 -3.851738373296282 0 0 0
2 1 5 -0.184 -13.445891616084003 6.479979450422678 -3.081391749565015 0 0 0
338 23 3 -0.439 -6.166695632138628 8.442576519906606 -12.976959771085113 0 0 0
1001 67 4 0.123 -0.85389871361279 3.3661796182152357 3.7174308802579348 0 0 0
1455 97 4 0.123 -2.0812814250891507 10.980017973034856 -6.376529093642712 0 -1 0
849 57 4 0.123 -0.9349871053461712 -14.595294198622994 -12.516065410410919 0 0 0
110 8 5 -0.271 -5.31036735334941 6.80209059408639 -9.318734527033623 0 0 0
2310 370 2 0.5564 -2.3385520268404068 3.631271399388961 -12.39819896524545 0 0 0
107 8 5 -0.184 -4.890164723615598 4.412930205402124 -9.567186401548758 0 0 0
2425 409 1 -1.1128 -5.987700340357561 5.4259029509522065 -6.350337396927466 0 0 0
2426 409 2 0.5564 -5.301957461843833 5.895350140056744 -5.875355558600694 0 0 0
2427 409 2 0.5564 -5.582214676799421 5.187838552495242 -7.184087034834892 0 0 0
1968 256 2 0.5564 -7.4899223788163125 6.786300190848734 -5.473041902396402 0 0 0
120 8 4 0.123 -2.8143657626618115 3.8935106720537536 -9.63103587847148 0 0 0
119 8 5 -0.08699999999999999 -3.535289265984785 4.704707893950204 -9.477723041474073 0 0 0
118 8 4 0.147 -2.032755039382957 6.072327588642916 -8.934717835158532 0 0 0
117 8 5 -0.271 -3.0560849315102554 5.972698191061507 -9.276012690238343 0 0 0
291 20 4 0.147 -4.125459948814106 5.4975062721541015 -3.617894343987458 0 0 0
2383 395 1 -1.1128 -4.898485912881721 12.504236659591966 -5.579308923089215 0 0 0
2385 395 2 0.5564 -5.050135149175933 12.228847973873997 -4.675209691209461 0 0 0
116 8 4 0.123 -4.134153634976109 9.056372708484346 -8.377590948149866 0 0 0
2384 395 2 0.5564 -5.300109425505524 13.371207884967832 -5.636678266471151 0 0 0
112 8 5 0.296 -3.9113317657200533 7.0507051755919 -9.166632463419557 0 0 0
335 23 5 -0.271 -4.364400076681644 9.63885903078446 -14.245322816996138 0 0 0
337 23 5 0.296 -5.40340568310722 9.65331523796113 -13.316056716520867 0 0 0
333 23 5 -0.08699999999999999 -3.5895587411304177 10.695629906703402 -14.582238955589412 0 0 0
334 23 4 0.123 -2.6984295952467137 10.598800135476298 -15.209658467386136 0 0 0
331 23 4 0.134 -3.220427106636103 12.735757403948076 -14.15136996963783 0 0 0
332 23 5 -0.184 -3.852229186511409 11.896545609899187 -13.944509778710476 0 0 0
113 8 3 -0.439 -3.5128338221739397 8.525991346453399 -9.132368426337349 0 0 0
114 8 4 0.123 -2.480966247433663 8.777305462332416 -8.910524019522908 0 0 0
1828 210 1 -1.1128 -8.126835446119793 11.435395363358147 -4.3090134383409 0 0 0
286 20 4 0.134 -1.7604389761058372 7.9562214005797 -6.285359226728308 0 0 0
287 20 5 -0.184 -2.64089932741605 7.751120518197483 -5.608821712395949 0 0 0
290 20 5 -0.271 -3.998877684774166 6.358507598862705 -4.203427074889928 0 0 0
288 20 5 -0.08699999999999999 -2.907496720782542 6.482801983074498 -5.0420921959265055 0 0 0
1830 210 2 0.5564 -7.420222153562324 11.696321399088049 -3.718380644783238 0 0 0
292 20 5 0.296 -4.890970237236363 7.409007922899754 -4.004811292978679 0 0 0
342 23 5 -0.271 -5.647608956687751 10.871355922948524 -12.72855596301233 0 0 0
344 23 5 -0.08699999999999999 -4.888062065792839 11.956119521523622 -13.080392851392586 0 0 0
345 23 4 0.123 -4.938938860776382 12.763240939668519 -12.390350764657276 0 0 0
295 20 4 0.123 -6.9290858114274325 6.92373868006479 -3.551941753757777 0 0 0
294 20 4 0.123 -6.2111355090775415 8.146209566557529 -2.479151415942824 0 0 0
293 20 3 -0.439 -6.04025653908058 7.210638984849018 -2.9850308089289865 0 0 0
300 20 4 0.123 -3.540408596981772 9.55034905845446 -6.055143727851797 0 0 0
299 20 5 -0.08699999999999999 -3.4959638063975538 8.790991699566526 -5.383853828661941 0 0 0
297 20 5 -0.271 -4.681429110623024 8.614312941300271 -4.647782250388943 0 0 0
1226 82 4 0.123 -1.30744892143329 -6.6810890361503406 -1.3481061172279678 0 0 0
2723 508 2 0.5564 -0.495502270682084 13.634627051229865 13.842101447195056 0 0 0
343 23 4 0.147 -6.535927384246074 11.06115134542309 -12.100313235463943 0 0 0
3186 662 2 0.5564 -0.8771726022123111 -1.3857258296407002 13.68568896419819 0 0 0
4293 1031 2 0.5564 -0.3757711849491876 1.1022115704554567 -13.276630052438167 0 0 0
1452 97 5 -0.271 -1.1984313223221368 12.157817897689151 -7.974307827031231 0 -1 0
289 20 4 0.123 -2.196809413773183 5.6315814855386055 -5.16236604869646 0 0 0
1453 97 4 0.147 -1.7406311551071765 11.769248374823436 -8.818502237838343 0 -1 0
169 12 4 0.123 -8.63147555928455 18.450455831311864 -12.047945852312512 0 -1 0
2644 482 1 -1.1128 -10.375215367673473 12.163553742862288 -9.706004019167407 0 0 0
2646 482 2 0.5564 -10.29584778607373 12.162194591110374 -8.75210110283448 0 0 0
689 46 5 -0.08699999999999999 -13.146955126653573 12.9063545676572 -5.673344640440657 0 0 0
2645 482 2 0.5564 -9.935168770267714 12.967455278137034 -9.982288457233143 0 0 0
676 46 4 0.134 -13.31546143296833 13.879126239174365 -7.668765720982975 0 0 0
690 46 4 0.123 -13.128690289965492 13.85226351209248 -5.105633276603037 0 0 0
2647 483 1 -1.1128 -9.973568925206783 12.106814192412854 -7.028242514252026 0 0 0
1670 157 2 0.5564 -11.239748753452478 17.788802540667728 -10.289903319307548 0 -1 0
2094 298 2 0.5564 -14.582847873111529 15.696884561186708 -11.087366936988719 0 -1 0
1615 139 1 -1.1128 -10.109922986474038 14.833228537841013 -7.079945608418414 0 0 0
2817 539 2 0.5564 -13.912766640901191 18.369337141054206 -5.937968147515465 0 0 0
2815 539 1 -1.1128 -14.026293181516408 17.54400792668069 -6.4093228242621985 0 0 0
2816 539 2 0.5564 -13.806956217450912 16.86881757400066 -5.767262771714897 0 0 0
2641 481 1 -1.1128 -12.743958861071741 18.330223950814073 -8.79290717891901 0 0 0
2643 481 2 0.5564 -13.198066789522509 18.173803137860858 -9.620886848492857 0 0 0
2642 481 2 0.5564 -13.349741208079886 18.012723206893817 -8.123240963145987 0 0 0
2648 483 2 0.5564 -10.723401422105534 11.782549570058611 -6.529408376746502 0 0 0
2649 483 2 0.5564 -10.033544320211668 13.0596575573897 -6.959509890402593 0 0 0
2363 388 2 0.5564 -10.62640020119357 16.69953799944808 -4.841991784423955 0 0 0
1617 139 2 0.5564 -10.078463865135996 15.630729261564445 -7.60837228839583 0 0 0
1616 139 2 0.5564 -10.425345580283457 15.12449337976022 -6.224431006247475 0 0 0
2177 326 2 0.5564 -11.118605205879458 17.68716494840656 -7.814803866857506 0 0 0
2176 326 1 -1.1128 -10.164224685409923 17.749745704403306 -7.776420101851275 0 0 0
2362 388 1 -1.1128 -11.139949626688828 15.899558952889787 -4.730043717479682 0 0 0
2364 388 2 0.5564 -10.643062635656284 15.382107991389226 -4.096340560870017 0 0 0
2178 326 2 0.5564 -9.978694273382727 18.04411261835637 -6.884703539352551 0 0 0
2489 430 2 0.5564 -8.990816727965417 19.77368845681337 -5.0233491615269905 0 0 0
2488 430 1 -1.1128 -8.945549330512081 -19.27031549368985 -5.007404050174026 0 1 0
2735 512 2 0.5564 -7.122191084877154 14.94435862118357 -4.948767563116862 0 0 0
2736 512 2 0.5564 -7.874853461427104 14.17643037880938 -6.0144507630437225 0 0 0
2734 512 1 -1.1128 -7.770164530407028 14.249619220142042 -5.06581203168214 0 0 0
2381 394 2 0.5564 -8.663071688693782 17.50592816305033 -5.30929657266285 0 0 0
2380 394 1 -1.1128 -9.451725617985034 17.925373695576596 -4.965316548809954 0 0 0
2631 477 2 0.5564 -6.290170888874888 16.82264650488477 -6.377510869505288 0 0 0
2629 477 1 -1.1128 -6.661655523177846 17.00776293262248 -5.51497806031619 0 0 0
781 53 4 0.134 -13.011573174018295 17.98913546571623 -3.0172489608231743 0 -1 0
782 53 5 -0.184 -13.374029376741252 18.937274996196802 -3.3591272426415255 0 -1 0
340 23 4 0.123 -7.136078698969624 8.666145166377662 -12.51372014073022 0 0 0
2490 430 2 0.5564 -8.481914742076912 -19.038557774833006 -5.812117066912399 0 1 0
864 58 4 0.123 -2.1227931937018654 14.423179465225777 -12.296625865414219 0 -1 0
863 58 3 -0.439 -1.934655586908821 15.28107335730291 -12.881612030110912 0 -1 0
862 58 5 0.296 -0.7383294287113132 16.027267095423685 -12.362707744578545 0 -1 0
866 58 4 0.123 -1.8868016672829007 14.88214770000375 -13.851424684893209 0 -1 0
2044 282 1 -1.1128 -5.487668883520919 19.534653249969637 -4.710450339079789 0 -1 0
1829 210 2 0.5564 -8.32816713109991 12.227632128906066 -4.8070678826224915 0 0 0
651 44 4 0.147 -5.330591689167027 17.71291241525618 -8.93717667381293 0 -1 0
655 44 4 0.123 -2.8280968536518793 15.644586799155462 -7.290515237898788 0 -1 0
656 44 4 0.123 -2.4794440291965696 16.156370016232554 -8.878784323680405 0 -1 0
654 44 4 0.123 -3.176426151299923 17.256146568209765 -7.726068532678716 0 -1 0
3799 867 1 -1.1128 -0.6196671372309664 17.039970254161627 -6.3162018150665515 0 -1 0
660 44 4 0.123 -6.3752561263700445 12.890063769519685 -8.515254903797123 0 -1 0
646 44 4 0.134 -8.081130717569286 14.565195654445507 -9.229916041439866 0 -1 0
647 44 5 -0.184 -7.126770357155162 14.824120951401353 -8.827420170686723 0 -1 0
659 44 5 -0.08699999999999999 -6.1442953360026 13.926818856177414 -8.341310769616094 0 -1 0
658 44 4 0.147 -4.019852697824659 13.794227571296936 -7.984518550745683 0 -1 0
657 44 5 -0.271 -4.836455828505384 14.430776547708492 -8.171953503635413 0 -1 0
649 44 4 0.123 -7.460510846087782 16.771805007173647 -9.744052504554439 0 -1 0
648 44 5 -0.08699999999999999 -6.805518969367644 16.1797602916114 -9.093071249485048 0 -1 0
650 44 5 -0.271 -5.557627310947855 16.64069383942728 -8.91584312866342 0 -1 0
652 44 5 0.296 -4.581925942006724 15.745864109020765 -8.482013964039695 0 -1 0
653 44 3 -0.439 -3.2011355681997284 16.250820400639682 -8.090191481575006 0 -1 0
2653 485 1 -1.1128 -2.1083760073399302 14.63298789612564 -5.201502618839632 0 0 0
2654 485 2 0.5564 -1.6838350786013574 15.136537600317421 -5.896077668960799 0 0 0
2630 477 2 0.5564 -6.16817585231639 17.764438971896293 -5.1985116043784405 0 0 0
3060 620 2 0.5564 -3.0787724918524 14.654652004181358 -3.290380957655417 0 0 0
2046 282 2 0.5564 -4.633152587534405 19.70720958823935 -5.105744901986954 0 -1 0
3800 867 2 0.5564 -0.5941061912124936 17.994020055195787 -6.242939021098445 0 -1 0
2655 485 2 0.5564 -2.225527094526343 13.759696602546986 -5.575494254725231 0 0 0
2573 458 2 0.5564 -1.246592161883589 18.931841513939883 -13.318593546404879 0 0 0
860 58 5 -0.271 -0.9466016455736235 16.914463829283005 -11.316790865155495 0 -1 0
2606 469 2 0.5564 -0.8059753066143935 9.967481571233238 3.2870099701147626 0 0 0
3184 662 1 -1.1128 -0.6827350311089139 -1.2464931674604935 12.7588447740144 0 0 0
861 58 4 0.147 -1.977214636607943 17.223034113827122 -11.000285679440536 0 -1 0
736 50 4 0.134 -15.560558243755235 -13.361272669242911 -5.323572976305755 0 1 0
739 50 4 0.123 -13.186311682778301 -13.262662693943005 -6.037764542337117 0 1 0
2511 437 2 0.5564 -8.359961162554468 -13.130973933124167 -2.4948761446401932 0 0 0
750 50 4 0.123 -16.151938961064516 -13.566131792771257 -2.904463127032898 0 1 0
2320 374 1 -1.1128 -8.931998933377141 -14.090992197547672 4.30225525228381 0 0 0
2322 374 2 0.5564 -9.864178540240204 -14.297583716985622 4.370026015621718 0 0 0
2754 518 2 0.5564 -7.672139642620562 -12.750776032018694 0.3793303202489418 0 0 0
2438 413 2 0.5564 -7.776942099801812 -13.58013348740428 2.697584630916587 0 0 0
2321 374 2 0.5564 -8.651937341269758 -13.94626640065817 5.206053777285817 0 0 0
738 50 5 -0.08699999999999999 -13.423284767024931 -13.345450744518054 -4.952399539865953 0 1 0
737 50 5 -0.184 -14.777761204933446 -13.421521151658302 -4.532693117787825 0 1 0
742 50 5 0.296 -12.788333593807822 -13.36217204657618 -2.6544299842040155 0 1 0
740 50 5 -0.271 -12.42011886911178 -13.320248153132454 -4.017271061605196 0 1 0
747 50 5 -0.271 -14.107859465296308 -13.489880497701124 -2.2584800767278255 0 1 0
749 50 5 -0.08699999999999999 -15.11150439402726 -13.412246644057374 -3.183051835764276 0 1 0
2752 518 1 -1.1128 -8.036382593818283 -12.297399401255701 -0.38093842578227716 0 0 0
741 50 4 0.147 -11.413746300351459 -13.256394881709852 -4.384853742946987 0 1 0
743 50 3 -0.439 -11.703159309517744 -13.515576460279512 -1.6248297103664677 0 1 0
746 50 4 0.123 -10.93217577796508 -14.196741200707956 -2.0232947565744785 0 1 0
748 50 4 0.147 -14.38376072164567 -13.578767646974825 -1.1778958189620097 0 1 0
330 22 4 0.123 -10.8256248713442 -18.366392108036468 3.3130947002965985 0 1 0
745 50 4 0.123 -12.05958355231433 -13.89147505382931 -0.6806147069417258 0 1 0
744 50 4 0.123 -11.244842279678581 -12.507514053826274 -1.3955640993846221 0 1 0
367 25 5 0.296 -8.645697768774898 -17.047072085629075 -0.7934943964291579 0 1 0
366 25 4 0.147 -7.705482355442375 -15.703099662284481 0.5821440269874999 0 1 0
365 25 5 -0.271 -7.578956322530443 -16.25825126969214 -0.39068655051172957 0 1 0
2753 518 2 0.5564 -8.925910041777362 -12.062440536963893 -0.11680394350360328 0 0 0
328 22 4 0.147 -13.17373281339614 -17.9449681138084 2.833114905787124 0 1 0
329 22 5 -0.08699999999999999 -11.382680187658877 -18.98325655964121 2.6211192977087117 0 1 0
371 25 4 0.123 -10.739081554878116 -16.757583165879375 -0.640769598463098 0 1 0
325 22 4 0.123 -15.439109341161647 -18.857681616790586 1.65105990474978 0 1 0
323 22 3 -0.439 -14.770823589925756 -19.339684746621366 0.929746291443354 0 1 0
326 22 4 0.123 -14.77899924069696 -18.752003631924797 0.06033632195565347 0 1 0
322 22 5 0.296 -13.349347562366868 -19.586215470007456 1.4231298426270167 0 1 0
327 22 5 -0.271 -12.67687234465584 -18.698654961818928 2.2286503782889184 0 1 0
2437 413 1 -1.1128 -7.178731432273076 -13.607897485058578 1.9508551008481478 0 0 0
2881 561 1 -1.1128 -10.614346453554083 -11.615621622335642 1.3572511651355101 0 1 0
2407 403 1 -1.1128 -11.721681023071397 -13.838031758291832 3.0395286146557976 0 1 0
2408 403 2 0.5564 -12.362355876660281 -14.361950982228961 2.558616778577683 0 1 0
2409 403 2 0.5564 -11.322791248355776 -13.276916401182856 2.374496049238584 0 1 0
30 2 4 0.123 -14.357344022619444 -8.630302328338871 -5.497044292570235 0 0 0
370 25 4 0.123 -9.907324969713118 -16.39509831341157 0.8175359108588955 0 1 0
369 25 4 0.123 -10.1459854080415 -18.09386102971307 0.3626951642931042 0 1 0
368 25 3 -0.439 -9.961854645466172 -17.121303755527787 -0.02544963580369779 0 1 0
324 22 4 0.123 -15.280529234079234 19.67781973989286 0.78736166736971 0 0 0
1637 146 2 0.5564 -13.333790703997233 -16.91835014927006 7.5974877939691705 0 0 0
640 43 4 0.123 -0.08931778105489349 -12.339221448383054 -2.2711500376831926 0 0 0
645 43 4 0.123 -4.057198101126023 -14.866476991191607 -3.605794997808144 0 0 0
2509 437 1 -1.1128 -8.276257490677159 -12.643542276582775 -3.314410095157572 0 0 0
363 25 5 -0.08699999999999999 -6.514931462713423 -15.93341859059952 -1.1998200949781652 0 1 0
364 25 4 0.123 -5.837407581351648 -15.120681471055626 -0.9117990208206574 0 1 0
2156 319 2 0.5564 -1.9758646818246746 -13.43086746918045 2.4730471296298284 0 1 0
372 25 5 -0.271 -8.614993994685035 -17.638096935190894 -2.0588955778314433 0 1 0
2155 319 1 -1.1128 -1.7262533294045768 -14.309503875704316 2.1868233617196076 0 1 0
1525 109 1 -1.1128 -4.007830439218441 -15.82451027168583 1.0036041834100073 0 1 0
1527 109 2 0.5564 -3.666628558508419 -15.650817094536217 1.880897616474475 0 1 0
1526 109 2 0.5564 -3.300826669305694 -16.29260977500911 0.5594642677837667 0 1 0
1656 152 2 0.5564 -0.6268816195295034 -16.444894345572898 -0.5796616398629872 0 1 0
1654 152 1 -1.1128 -1.4074038343332185 -16.42447118124893 -0.025947075347632013 0 1 0
1655 152 2 0.5564 -1.3237707206603837 -15.614312156061231 0.4769243694682761 0 1 0
1658 153 2 0.5564 -2.1140982867184683 19.31103223630904 -0.5359523931637616 0 0 0
1659 153 2 0.5564 -2.7275215556848282 -19.60550131438904 0.32527200823829283 0 1 0
1657 153 1 -1.1128 -2.6804233514130726 -19.918428402834802 -0.5781050944717616 0 1 0
1776 192 2 0.5564 -6.557155870058072 19.798626089071977 -1.2103842761606334 0 -1 0
1774 192 1 -1.1128 -6.946842951397863 -19.709469341382782 -0.4876078890424176 0 0 0
1775 192 2 0.5564 -7.63644999386017 -19.18702472951144 -0.8971509924506076 0 0 0
1908 236 2 0.5564 -4.1733349005501665 -13.676623232158198 0.5346322128341957 0 0 0
1907 236 2 0.5564 -4.275751175110825 -13.06334268543909 -0.8456912610528764 0 0 0
1906 236 1 -1.1128 -4.247631276254908 -12.835622156435335 0.08360116071420282 0 0 0
643 43 4 0.147 -1.7367297894040146 -14.306199022661046 -3.025064270763075 0 0 0
642 43 5 -0.271 -2.5686229973615955 -13.54032813350237 -2.8564119987403847 0 0 0
2157 319 2 0.5564 -2.123520282475936 -14.89408720707229 2.8323255485346865 0 1 0
2184 328 2 0.5564 -2.3416654764136275 -18.335344039503475 2.5136656559001644 0 1 0
374 25 5 -0.08699999999999999 -7.479353407868436 -17.467297758606385 -2.868833604227538 0 1 0
362 25 5 -0.184 -6.512297397700955 -16.556369212397623 -2.456082122226938 0 1 0
361 25 4 0.134 -5.53896610960963 -16.602540986379353 -2.9511152818337285 0 1 0
375 25 4 0.123 -7.364446441215586 -17.99614615931067 -3.826821720977697 0 1 0
1639 147 1 -1.1128 -6.106818491825555 -18.14796550960828 1.485785722469297 0 0 0
1640 147 2 0.5564 -6.016495071883688 -17.26251342097884 1.1335811440437016 0 0 0
1641 147 2 0.5564 -6.484656680700161 -18.65475978677555 0.7670161398300344 0 0 0
639 43 4 0.123 -0.8647046822263712 -12.345546117439568 -0.7598632722592554 0 0 0
638 43 3 -0.439 -0.9480195985794615 -11.933223571828096 -1.737684800349617 0 0 0
641 43 4 0.123 -0.7745759656970376 -10.834053333048391 -1.7827310951893809 0 0 0
637 43 5 0.296 -2.2462074180742637 -12.271149698385658 -2.3948062116069124 0 0 0
644 43 5 -0.08699999999999999 -3.857759739707815 -13.882363949043055 -3.1799353087343785 0 0 0
2183 328 2 0.5564 -3.5038707012009183 -17.924919746312007 1.6346170858473899 0 1 0
2439 413 2 0.5564 -6.315020804746515 -13.744376188247589 2.3402254736086565 0 0 0
2400 400 2 0.5564 -3.553569081119828 -15.435874784075363 4.065180596165514 0 0 0
2589 463 2 0.5564 -5.9838512934030135 -19.035545348054786 3.305567442917012 0 1 0
2908 570 1 -1.1128 -5.122763458208571 -14.848206576327073 4.2840969450661355 0 0 0
2493 431 2 0.5564 -0.43571863052987325 -1.375148162313549 -1.2163807663874022 0 0 0
19 2 4 0.123 -12.182559693086459 -5.27354239164981 -4.0166022500754615 0 0 0
18 2 5 -0.08699999999999999 -12.24578719966125 -6.368397796408215 -4.232767573386053 0 0 0
21 2 4 0.147 -10.266122959342091 -6.7071778570723 -3.586558843415326 0 0 0
20 2 5 -0.271 -11.156236551003555 -7.200888850919187 -3.899600382256872 0 0 0
2510 437 2 0.5564 -8.328528193940466 -11.724150068447452 -3.053225222514173 0 0 0
2883 561 2 0.5564 -10.778732642937854 -10.924205136331276 0.7160396298773468 0 1 0
2882 561 2 0.5564 -10.305788493383009 -11.152334303974412 2.135960762823163 0 1 0
28 2 4 0.147 -12.631425285995416 -10.113783433968525 -4.5908074350331125 0 0 0
16 2 4 0.134 -14.25519896256594 -6.285339107982476 -4.533454667154668 0 0 0
27 2 5 -0.271 -12.472613366025767 -9.078172731871605 -4.5691678845793025 0 0 0
29 2 5 -0.08699999999999999 -13.506212636055793 -8.231398952069325 -4.921829107862941 0 0 0
17 2 5 -0.184 -13.402082212719106 -6.913973120062131 -4.634427128223448 0 0 0
2901 567 2 0.5564 -11.803405309865829 -6.134392849636374 2.310868009860812 0 0 0
2028 276 2 0.5564 -10.392750124129108 -9.091567986893729 -0.1111267444257199 0 0 0
2026 276 1 -1.1128 -11.139082052360274 -9.596947564776935 -0.4333254554809363 0 0 0
1795 199 1 -1.1128 -8.933320455423946 -8.204622462361762 0.22284496086341565 0 0 0
1796 199 2 0.5564 -8.78453088287204 -7.34478632046775 -0.1705699942330783 0 0 0
1797 199 2 0.5564 -8.302291390361855 -8.779270015567398 -0.21053062181137308 0 0 0
2021 274 2 0.5564 -9.811576865230077 -5.089348875313566 3.6948871658191105 0 0 0
2027 276 2 0.5564 -11.126219396679042 -9.466023353129774 -1.3814421371545345 0 0 0
1973 258 2 0.5564 -10.143176243754551 -4.447737306794131 1.665335868841094 0 0 0
2899 567 1 -1.1128 -12.61039456507985 -6.615215579508701 2.4947421499411266 0 0 0
22 2 5 0.296 -11.299831853167715 -8.585977526419905 -4.046643308289092 0 0 0
1972 258 1 -1.1128 -10.374873866979192 -5.351841480770204 1.8778063068859137 0 0 0
1974 258 2 0.5564 -10.342409434414432 -5.811419119533255 1.0387793659062927 0 0 0
24 2 4 0.123 -9.308196151226417 -9.2202058681008 -3.111145450658078 0 0 0
23 2 3 -0.439 -10.171011250124618 -9.565796484458561 -3.739088176954848 0 0 0
2900 567 2 0.5564 -13.016694637476029 -6.135118577518178 3.216309147545926 0 0 0
2299 367 1 -1.1128 -13.444832463485847 -9.048512373036624 1.485670719496865 0 0 0
2301 367 2 0.5564 -13.143812996780696 -8.321581432271536 2.0308225697839113 0 0 0
2300 367 2 0.5564 -12.921507536979664 -8.982230483917546 0.6869407934762494 0 0 0
2200 334 1 -1.1128 -9.509425205972327 -10.030378612256342 3.375079477918501 0 0 0
2201 334 2 0.5564 -10.113182529137086 -9.380548776466854 3.7348434466513645 0 0 0
1955 252 2 0.5564 -7.32354793001698 -10.725052875469947 -0.5752593565894206 0 1 0
1954 252 1 -1.1128 -7.065259893480886 -9.804507530667673 -0.529265373487358 0 1 0
2513 438 2 0.5564 -8.059884400743385 -5.396987543951752 0.2666122641762108 0 0 0
2512 438 1 -1.1128 -8.657407605992386 -5.683425905706018 -0.4241488286663402 0 0 0
2514 438 2 0.5564 -8.631202523218484 -4.97884755768341 -1.0715393543025387 0 0 0
2447 416 2 0.5564 -8.08274573046015 -4.765463835762166 -3.022525013745193 0 0 0
2020 274 1 -1.1128 -9.540584954175547 -5.2396014475652875 4.600546808601124 0 0 0
2202 334 2 0.5564 -8.916284972676682 -9.525026037114273 2.8191700614631183 0 0 0
2927 576 2 0.5564 -13.692149591819605 -11.166420591568203 1.3668219124905048 0 1 0
2928 576 2 0.5564 -12.401572182318068 -11.942686943057492 1.5208205748026886 0 1 0
2022 274 2 0.5564 -8.632645300158059 -4.938180079072025 4.632524361788858 0 0 0
4443 1081 2 0.5564 -2.025052211248713 1.1691575170256774 -1.5174855344314473 0 0 0
404 27 5 -0.08699999999999999 -1.150656456536318 -9.529732247033781 -4.261686330784451 0 0 0
1447 97 5 0.296 -0.24819254246042874 13.05046814716476 -8.378042023755492 0 -1 0
4253 1018 2 0.5564 -0.20536114345492096 -4.704617023656836 8.240109989338439 0 0 0
25 2 4 0.123 -10.537305470706405 -10.48666311494601 -3.3719190871475675 0 0 0
1223 82 3 -0.439 -1.2316303534534645 -7.251349222387681 -0.4008459964013227 0 0 0
1225 82 4 0.123 -2.2483758749778895 -7.261156607714335 0.05406891398158342 0 0 0
80 6 5 -0.271 -6.719245598017309 -7.540431048675261 -3.283589478665574 0 0 0
391 27 4 0.134 -3.1251930643196673 -9.767854399111433 -5.210665500609921 0 0 0
81 6 4 0.147 -7.080340148241165 -8.450036881712123 -2.81903575954922 0 0 0
1956 252 2 0.5564 -6.231446264087546 -9.812401464398688 -0.059239447040654605 0 1 0
2742 514 2 0.5564 -7.35292098280852 -7.9464207816389045 2.2509444171367106 0 0 0
2740 514 1 -1.1128 -7.042199922354344 -8.753022441840516 2.662135360403171 0 0 0
2741 514 2 0.5564 -6.428618809246513 -9.124555791947074 2.02832703424578 0 0 0
82 6 5 0.296 -5.5801063345069455 -6.899879954667062 -2.6706464517841337 0 0 0
631 43 4 0.134 -5.882611645164651 -13.2502870023434 -3.293749545164739 0 0 0
84 6 4 0.123 -5.543039376897935 -8.081187374219295 -0.816582392843171 0 0 0
86 6 4 0.123 -4.33874846035673 -6.7557945195901885 -0.7946778951715537 0 0 0
87 6 5 -0.271 -4.9593220704402015 -5.77036285289662 -3.186068987925308 0 0 0
83 6 3 -0.439 -4.872493498639523 -7.5048285811952455 -1.4413933526524867 0 0 0
85 6 4 0.123 -4.074314686125265 -8.214123820608243 -1.8804015286727778 0 0 0
634 43 4 0.123 -5.4692929417988925 -10.941157536660446 -2.4814080885167025 0 0 0
632 43 5 -0.184 -4.845176750154644 -12.91472095617839 -3.0660968217337436 0 0 0
1969 257 1 -1.1128 -4.521670738298305 -10.132423029594127 0.7105144069970599 0 0 0
1970 257 2 0.5564 -4.01828110943659 -10.860667421438478 0.34652151860913005 0 0 0
636 43 4 0.147 -3.0602542780249116 -10.324663195768935 -2.1050086412036775 0 0 0
633 43 5 -0.08699999999999999 -4.601987927260437 -11.610948448419416 -2.6560422620089486 0 0 0
635 43 5 -0.271 -3.2908550500915665 -11.357202750320626 -2.3229807338339294 0 0 0
1971 257 2 0.5564 -4.322879323552735 -10.14751115550033 1.6467226939685262 0 0 0
4370 1057 2 0.5564 -6.531073405271345 -5.046359537890889 2.63867426324778 0 0 0
4369 1057 1 -1.1128 -6.761956709093272 -5.796416805630346 3.1867060239736156 0 0 0
3050 617 2 0.5564 -1.1015867177679548 -5.52103660001575 10.533748307527885 0 0 0
4371 1057 2 0.5564 -6.058096822428505 -6.427880710897956 3.0381583393581377 0 0 0
249 17 4 0.123 -1.4462494489583408 4.156695674113817 19.7965794813251 0 0 -1
675 45 4 0.123 -2.646462593688969 -7.531114971745968 3.943124607678628 0 0 0
661 45 4 0.134 -4.16323346217728 -7.291410822093145 1.7763198685844168 0 0 0
662 45 5 -0.184 -3.63954976326076 -6.48329153924416 2.2696911730797273 0 0 0
674 45 5 -0.08699999999999999 -3.031187256122414 -6.5865986062211 3.5088853594024 0 0 0
4442 1081 2 0.5564 -2.7764017172367943 2.210246766128666 -2.3196714755675636 0 0 0
2762 521 2 0.5564 -0.5724740393321652 15.08224301786941 3.838852603319581 0 0 0
1576 126 1 -1.1128 -0.9965508096648309 13.004959673638819 6.897113871483679 0 0 0
606 41 4 0.147 -16.098210870873714 -0.14795921830912023 1.8713862447809395 0 0 0
603 41 5 -0.08699999999999999 -16.338165003934737 1.8859365965030723 1.4137014391546059 0 0 0
604 41 4 0.123 -17.06936474237875 2.022665694042119 2.204512076126927 0 0 0
602 41 5 -0.184 -16.085885830592066 2.874150525080071 0.46871980432523713 0 0 0
601 41 4 0.134 -16.465925480935184 3.873293541281255 0.6718961904110995 0 0 0
240 16 4 0.123 -17.92430892873034 1.4451263911169452 8.220276448637582 0 0 -1
238 16 4 0.147 -17.24289535984774 2.655126059150407 6.141926347349598 0 0 -1
605 41 5 -0.271 -15.61624591574082 0.6969357750040279 1.3717679741740585 0 0 0
614 41 5 -0.08699999999999999 -15.065183634428484 2.748522997704977 -0.48009024103587594 0 0 0
615 41 4 0.123 -14.789091322422284 3.59193587668973 -1.1212169353297021 0 0 0
6 1 4 0.147 -15.13134680445248 3.966166191928568 -4.586192573143641 0 0 0
5 1 5 -0.271 -14.913201641042898 4.726553980949713 -3.857295816535374 0 0 0
11 1 4 0.123 -17.8963141743559 4.555735420170913 -3.6088786601337906 0 0 0
237 16 5 -0.271 -17.976998555336078 3.070379244140496 6.862290589943992 0 0 -1
281 19 4 0.123 -12.310629466862194 0.8632415833376896 -4.84979112476227 0 0 0
2347 383 1 -1.1128 -12.642723290289737 -2.712204783128975 4.22689901623746 0 0 0
609 41 4 0.123 -13.159287980519307 -0.9542338622832797 0.9126568980106631 0 0 0
608 41 3 -0.439 -14.080862600189716 -0.8233494970318066 0.35989074906470275 0 0 0
610 41 4 0.123 -14.773737588928121 -1.587644695461507 0.7133709473838609 0 0 0
2436 412 2 0.5564 -10.212288351201115 -1.729981553558996 -3.8337515673245766 0 0 0
2897 566 2 0.5564 -10.379130135861343 3.577013841307738 -4.580071850820391 0 0 0
280 19 4 0.123 -11.982675941924688 -0.8194298795568045 -5.143407222165318 0 0 0
278 19 3 -0.439 -12.482876160122753 0.029553567702466435 -5.5536629249947875 0 0 0
611 41 4 0.123 -13.84114908515274 -1.1282095582790463 -0.6538021803538222 0 0 0
613 41 4 0.147 -13.552449134567013 1.333356038024963 -1.2501000642879232 0 0 0
607 41 5 0.296 -14.581937595989832 0.5639642990178113 0.46463868565920746 0 0 0
612 41 5 -0.271 -14.309509935026036 1.554859518711097 -0.4718787949609085 0 0 0
279 19 4 0.123 -13.545535939488603 -0.1950099052037433 -5.601027422538065 0 0 0
2051 284 2 0.5564 -9.990319724836551 0.286174151070678 -0.0023403816541207496 0 0 0
2050 284 1 -1.1128 -9.76038273241247 -0.4576687037163755 -0.5591694661356539 0 0 0
2417 406 2 0.5564 -10.146345530133846 1.1725402598974708 -3.6282855309119157 0 0 0
2416 406 1 -1.1128 -9.749369571605815 0.32909419342054214 -3.4109365049967244 0 0 0
2448 416 2 0.5564 -9.281805666856014 -3.841672549313911 -3.05009285256907 0 0 0
2446 416 1 -1.1128 -8.549659045631692 -4.115357578867886 -2.497562590181924 0 0 0
2418 406 2 0.5564 -9.760086884398273 0.29821468722607264 -2.454294795237042 0 0 0
2330 377 2 0.5564 -9.184149054349835 1.4107833548824957 1.0217327098987459 0 0 0
2331 377 2 0.5564 -10.144251040525305 2.521684732015286 1.390511075476212 0 0 0
2329 377 1 -1.1128 -10.1087373975729 1.6556688368320334 0.9843250613986498 0 0 0
2412 404 2 0.5564 -8.823781194674797 3.925029215129151 -3.9351553155929127 0 0 0
2269 357 1 -1.1128 -9.638629858912415 -2.5914041391964346 1.4080280670996939 0 0 0
2896 566 1 -1.1128 -10.373826602619092 3.1295199749333213 -3.7339318373989054 0 0 0
2898 566 2 0.5564 -10.787961737814047 3.748424409503188 -3.132532490280562 0 0 0
2676 492 2 0.5564 -11.076717020664015 0.3358154348121663 2.5525425568136297 0 0 0
2271 357 2 0.5564 -9.722200562512969 -1.8245575010861805 1.974767862089386 0 0 0
2270 357 2 0.5564 -9.915180363377809 -2.283280971926103 0.5450032882421821 0 0 0
2019 273 2 0.5564 -7.83157540107808 -2.9042633376652645 1.9820360623805782 0 0 0
2348 383 2 0.5564 -12.727571833888556 -3.574210160241575 4.634304557493075 0 0 0
2349 383 2 0.5564 -12.230569581015189 -2.8862258546762636 3.3806852110725822 0 0 0
2840 547 2 0.5564 -14.16721066962699 -2.000932402990257 5.236939409049011 0 0 0
2766 522 2 0.5564 -14.303582594705667 3.353230676458081 2.44422385810656 0 0 0
2764 522 1 -1.1128 -13.701143874812983 3.38062528060145 3.1875600376479833 0 0 0
1856 219 2 0.5564 -8.198408323562477 0.911605857573187 -4.3325415283419595 0 0 0
2434 412 1 -1.1128 -10.054503836182612 -2.659046844916172 -4.001601352751499 0 0 0
2052 284 2 0.5564 -8.816531309210491 -0.3734888135933291 -0.6944102762309984 0 0 0
2411 404 2 0.5564 -7.3504978642061 3.5904683541722107 -4.032110213723213 0 0 0
2765 522 2 0.5564 -12.836669944838643 3.491780826471933 2.791882043188088 0 0 0
2410 404 1 -1.1128 -7.9571274456924375 4.242827782033552 -3.6818824677119215 0 0 0
2674 492 1 -1.1128 -11.115311281800421 -0.5250582018158233 2.969242522332822 0 0 0
1857 219 2 0.5564 -7.012435921124755 0.18986710684726282 -4.936244942069363 0 0 0
1855 219 1 -1.1128 -7.436317799183852 1.0471344957413458 -4.895641751875848 0 0 0
1929 243 2 0.5564 -3.0886306885653294 2.0960619610008484 -5.857053930007142 0 0 0
664 45 4 0.123 -3.947342975269404 -5.16654737266736 0.6563168815909505 0 0 0
665 45 5 -0.271 -3.3052699432260004 -4.0488427750461895 2.47785558249626 0 0 0
663 45 5 -0.08699999999999999 -3.691093341702645 -5.223252623978986 1.7465112275847023 0 0 0
1927 243 1 -1.1128 -2.784302554069055 2.6623995960062374 -5.147915080113344 0 0 0
4171 991 1 -1.1128 -2.1289572647653885 -1.7285937117328887 -4.22177492760115 0 0 0
88 6 4 0.147 -4.147153586862882 -5.22078309785507 -2.674781894578267 0 0 0
1582 128 1 -1.1128 -2.3499041453675575 -0.6338988455678203 -1.248266935922236 0 0 0
1583 128 2 0.5564 -3.114881809733042 -0.8182613104976361 -1.793291273725909 0 0 0
1584 128 2 0.5564 -2.6350458850472607 -0.8378641561511385 -0.3575794673717644 0 0 0
2592 464 2 0.5564 -6.979246944589572 0.6270475745158035 -1.6112126663712807 0 0 0
2591 464 2 0.5564 -6.585242840771099 -0.8321085626876654 -1.524499529050579 0 0 0
2590 464 1 -1.1128 -7.0013236067128 -0.1294347025046195 -1.0251418817691411 0 0 0
1625 142 2 0.5564 -4.797703964347095 0.7878094371863218 -2.930105947511221 0 0 0
1624 142 1 -1.1128 -4.7260334951841525 1.6603823114629541 -3.317031894930073 0 0 0
1626 142 2 0.5564 -5.498932518979473 2.127690886606986 -3.000043553282897 0 0 0
2017 273 1 -1.1128 -6.924826371097678 -3.1760151361333575 1.8399482332877963 0 0 0
2499 433 2 0.5564 -4.765499056027663 -1.2292997541790007 -3.3421141477077367 0 0 0
2498 433 2 0.5564 -4.988742285090508 -1.827802417989751 -1.9695792335918343 0 0 0
2497 433 1 -1.1128 -4.658719449959706 -1.0441251969208736 -2.4090866458206777 0 0 0
1877 226 2 0.5564 -7.1273167379296485 -3.162289635279622 -1.682676487336626 0 0 0
1531 111 1 -1.1128 -5.785792522518337 -0.767193795714066 1.3103330068132477 0 0 0
1876 226 1 -1.1128 -6.337298817512895 -2.999285977781426 -1.1673772786371381 0 0 0
1878 226 2 0.5564 -6.56855554130353 -3.274086867925352 -0.28011373805062484 0 0 0
1533 111 2 0.5564 -6.136775767218829 -0.41624142575016027 0.49187406827008845 0 0 0
1532 111 2 0.5564 -6.086915754953865 -0.15567858182281136 1.9823491923001368 0 0 0
2018 273 2 0.5564 -6.433503153871293 -2.356028967592415 1.7903900312722012 0 0 0
666 45 4 0.147 -3.557433954526957 -3.0653397329618723 2.0561488620406116 0 0 0
1928 243 2 0.5564 -3.3774961031942454 2.475647398804018 -4.420263474161279 0 0 0
4173 991 2 0.5564 -1.1978349741829102 -1.638411988581894 -4.424531708057468 0 0 0
1764 188 2 0.5564 -7.654208834588524 3.1262407710375952 -1.5308710645062118 0 0 0
1762 188 1 -1.1128 -6.8493241708059305 2.637429212303355 -1.359244296779192 0 0 0
465 31 4 0.123 -3.8073010663460933 3.011338049578797 2.394943677439191 0 0 0
1450 97 4 0.123 -1.3693976372762706 13.544159038622158 -10.28064450864836 0 -1 0
1066 72 4 0.134 -1.5177617769263896 0.1130188935298435 3.8874944086824077 0 0 0
268 18 4 0.147 -0.25341398221071226 6.837805079688488 -9.87281791265949 0 0 0
1448 97 3 -0.439 -0.4613774831479332 13.815917704048147 -9.713206415429378 0 -1 0
14 1 5 -0.08699999999999999 -14.494711577988937 7.060289906688037 -2.3471704211783924 0 0 0
13 1 4 0.147 -16.51678804981332 6.739425481226284 -1.5956300347078014 0 0 0
430 29 4 0.123 -13.331623547578156 12.0020959714468 5.663288639194347 0 0 0
10 1 4 0.123 -17.592425399774484 4.560453644479044 -1.8263657322935747 0 0 0
7 1 5 0.296 -15.899770165501485 5.269835130531295 -3.0329370181509767 0 0 0
12 1 5 -0.271 -15.702597509498009 6.373555765242013 -2.239420029041303 0 0 0
8 1 3 -0.439 -17.145713671149355 4.377945282484088 -2.810358228675532 0 0 0
9 1 4 0.123 -16.933262230975938 3.3002130898916566 -2.8933973965237816 0 0 0
428 29 3 -0.439 -13.020831531170298 11.877000645475599 4.638639323937373 0 0 0
235 16 4 0.123 -17.236873721775922 4.797749112728625 4.829061147204399 0 0 -1
236 16 4 0.123 -18.73042316031427 5.885173761258375 5.043596753854157 0 0 -1
685 46 4 0.123 -14.113993151068591 8.698807797547367 -4.7665076701867335 0 0 0
1913 238 2 0.5564 -8.930662945131337 6.121989336119582 -3.0321698595985085 0 0 0
1912 238 1 -1.1128 -9.846318550599928 6.384052238567011 -2.9366206516747204 0 0 0
1682 161 2 0.5564 -6.581084541428133 4.117413503517902 2.26930934256634 0 0 0
2101 301 1 -1.1128 -8.782541806043742 4.830752738920848 3.911684973793171 0 0 0
1681 161 1 -1.1128 -7.3088658260251 3.886031562477017 1.6922230037047137 0 0 0
2302 368 1 -1.1128 -11.081413016183296 3.9342321380376837 1.7999794042078685 0 0 0
1547 116 2 0.5564 -11.021317824597652 8.23360443425222 -0.798767239352696 0 0 0
2486 429 2 0.5564 -8.92981273700925 7.465389934602677 1.5529951651192906 0 0 0
2485 429 1 -1.1128 -9.686796392868459 7.847654613266195 1.9969335787968825 0 0 0
2487 429 2 0.5564 -10.040906238258668 8.477013189716915 1.368645578429312 0 0 0
1548 116 2 0.5564 -10.738132300091712 6.997567827637227 -1.6257585234836716 0 0 0
2303 368 2 0.5564 -11.003709114285623 4.729103788317083 2.327589970363512 0 0 0
2249 350 2 0.5564 -12.062794590589618 5.773585754889733 -0.6597729653227964 0 0 0
2248 350 1 -1.1128 -12.331741832861567 4.868544358633711 -0.8172507992898905 0 0 0
2250 350 2 0.5564 -13.1272073763277 4.942845570481654 -1.3444563513095582 0 0 0
1546 116 1 -1.1128 -11.188992400483105 7.29187652799279 -0.8343424478459911 0 0 0
2197 333 1 -1.1128 -9.773588627016805 10.265050073163264 -0.8065796045445106 0 0 0
2304 368 2 0.5564 -11.594033821836689 4.20169234290168 1.0371447023398597 0 0 0
2199 333 2 0.5564 -9.96122963422281 11.174040911298091 -0.5725747048687048 0 0 0
2198 333 2 0.5564 -10.056557674607685 10.188497899496221 -1.7177876620890171 0 0 0
2263 355 1 -1.1128 -7.279459860001112 6.923965694781658 0.7446796663974622 0 0 0
2264 355 2 0.5564 -6.8466570526624855 6.085443712574643 0.5840731069665207 0 0 0
2186 329 2 0.5564 -10.241699337246535 8.112509940793938 4.535159041768373 0 0 0
2265 355 2 0.5564 -6.810552164466009 7.546403373006724 0.18886600700228623 0 0 0
2414 405 2 0.5564 -10.616507833485503 6.690495556521134 2.7823122593167557 0 0 0
433 29 4 0.147 -10.792234502360463 13.103940844996357 3.5716107383769646 0 0 0
2415 405 2 0.5564 -11.846120482892857 6.546436666581456 3.65363016014981 0 0 0
2413 405 1 -1.1128 -11.010154925899203 6.127532133682064 3.4489050904501144 0 0 0
1941 247 2 0.5564 -8.658057932246985 10.78474671226276 5.440631774917551 0 0 0
2103 301 2 0.5564 -9.631931331287747 5.2720704002833765 3.914511096242658 0 0 0
1683 161 2 0.5564 -8.086048414512481 4.21946015826253 2.140602788413725 0 0 0
2698 500 1 -1.1128 -10.107518900015046 9.807339869417419 -3.5767711250461405 0 0 0
549 37 4 0.123 -13.651183828110181 11.670391123051246 1.1460850629548247 0 0 0
546 37 4 0.147 -15.99501757955169 13.794469190013796 0.8764124737701662 0 0 0
548 37 3 -0.439 -14.398380283656827 11.859624394178358 0.3262112024563535 0 0 0
551 37 4 0.123 -14.320338733570381 11.079816398616464 -0.4197901603901874 0 0 0
550 37 4 0.123 -15.411545111652247 11.787225351697536 0.7826526232418167 0 0 0
547 37 5 0.296 -14.369352136190383 13.245779593145127 -0.297709964779678 0 0 0
1801 201 1 -1.1128 -0.16503067168068752 10.127448946430757 -1.5745087846362087 0 0 0
405 27 4 0.123 -0.9176480994364806 -10.52648273498907 -4.466835467146645 0 0 0
451 31 4 0.134 -3.0326329164750176 4.690834545626168 0.6810032772981713 0 0 0
1222 82 5 0.296 -0.26954867126924686 -6.493393050972982 0.45256317173757143 0 0 0
1763 188 2 0.5564 -6.5683431890709 2.9340744539122054 -0.4936328979188185 0 0 0
452 31 5 -0.184 -3.3886411593470642 4.989016909846625 1.6089304239105149 0 0 0
464 31 5 -0.08699999999999999 -3.96336763062807 4.089901414839756 2.5159609045056945 0 0 0
454 31 4 0.123 -3.003135315054039 7.103302933519919 1.1366820188200129 0 0 0
296 20 4 0.123 -5.728685876119989 6.476383794952163 -2.2947856489486833 0 0 0
2116 306 1 -1.1128 -2.16850728154506 8.363680245340364 -2.2171851341525954 0 0 0
458 31 3 -0.439 -5.456108020785002 6.4751195034274005 5.097425898071202 0 0 0
2117 306 2 0.5564 -2.2625175531156785 8.288727476051791 -3.1668039978425786 0 0 0
298 20 4 0.147 -5.395867819760833 9.422333777392915 -4.632863529038795 0 0 0
2461 421 1 -1.1128 -7.189808654898875 9.867112734250412 -0.0764965426973096 0 0 0
2463 421 2 0.5564 -6.696716635057856 10.302617943910892 -0.7717858833101319 0 0 0
2462 421 2 0.5564 -8.10679501234636 9.974537182984838 -0.3291381828126343 0 0 0
453 31 5 -0.08699999999999999 -3.419367929336767 6.361505514055026 1.869988809104616 0 0 0
455 31 5 -0.271 -3.9836919374008226 6.835314182611879 3.112447036376831 0 0 0
457 31 5 0.296 -4.58743661558579 5.939765843194047 3.991115958299107 0 0 0
462 31 5 -0.271 -4.5715892301424175 4.588180812338513 3.697068028440563 0 0 0
459 31 4 0.123 -6.488629580744346 6.503634643076732 4.767196594487835 0 0 0
456 31 4 0.147 -4.0278480419795795 7.907188365161442 3.337518388292034 0 0 0
1709 170 2 0.5564 -3.625428930254694 9.824982393145126 -1.1449093352836321 0 0 0
2118 306 2 0.5564 -1.5253741389382662 9.061857231576045 -2.0940574818697226 0 0 0
1710 170 2 0.5564 -4.231468088746712 10.685342278736112 -0.056611402554359674 0 0 0
1922 241 2 0.5564 -5.192444909069578 11.355956317322011 -2.234411431018714 0 0 0
1708 170 1 -1.1128 -4.281710453768916 10.505557888303096 -0.9954324963105878 0 0 0
2367 389 2 0.5564 -1.019838968282877 7.217066662933463 -1.449212517879301 0 0 0
2576 459 2 0.5564 -7.605707888190021 11.09305193206119 2.0016730251249277 0 0 0
2575 459 1 -1.1128 -7.673696674979328 11.714094316305479 2.7268734183048884 0 0 0
1921 241 1 -1.1128 -5.766399098105676 11.744975741126392 -2.894314669219913 0 0 0
2033 278 2 0.5564 -1.8160219791519034 9.918168927772932 1.4384042519161098 0 0 0
2032 278 1 -1.1128 -2.7571694634972737 9.936894691926357 1.6119627769663096 0 0 0
2034 278 2 0.5564 -2.8559940442576206 9.482566949036302 2.44865373849181 0 0 0
2253 351 2 0.5564 -1.8159920033235215 11.416784495845148 4.39932897373311 0 0 0
463 31 4 0.147 -5.001062052413718 3.8522026681797126 4.420561899177684 0 0 0
2252 351 2 0.5564 -3.09314273937334 12.130061544306528 4.009435377286275 0 0 0
2365 389 1 -1.1128 -0.4720993760064617 6.645482514799509 -0.9111560914839338 0 0 0
790 53 4 0.123 -13.32369707173632 -16.397947953492395 -4.400908932957676 0 0 0
789 53 4 0.123 -14.417350670851503 -16.323553668786488 -3.0337639471548568 0 0 0
788 53 3 -0.439 -14.169620325074966 -16.865713199112868 -3.9369898619048462 0 0 0
787 53 5 0.296 -13.892387053118975 -18.301844611251223 -3.520068816117802 0 0 0
791 53 4 0.123 -14.949090578516284 -16.82450202953481 -4.648552611203901 0 0 0
316 22 4 0.134 -9.701890294240087 19.723985200006133 2.4484615420254214 0 0 0
317 22 5 -0.184 -10.727720734445615 19.885734741001865 2.1764900108157295 0 0 0
1940 247 2 0.5564 -9.880280426652552 10.1287678640278 4.83420032917912 0 0 0
794 53 5 -0.08699999999999999 -14.667242683766641 19.410582527438308 -3.3178904900446735 0 -1 0
793 53 4 0.147 -15.912916270656886 -18.823177667846114 -3.4340285737340603 0 0 0
792 53 5 -0.271 -14.906634362114467 -19.202725060097926 -3.320560321485253 0 0 0
795 53 4 0.123 -15.463097144871409 18.71247970426541 -2.942947753068685 0 -1 0
1943 248 2 0.5564 -7.690074048725738 13.485248341656538 -0.787500869049761 0 0 0
432 29 5 -0.271 -11.696053817067515 13.75199575717717 3.611876640925996 0 0 0
544 37 4 0.123 -16.017526953023395 16.26110380629025 0.013483030406312184 0 0 0
2125 309 1 -1.1128 -10.117363936417135 12.992921077422704 -0.5171965443785703 0 0 0
553 37 4 0.147 -13.239031984425075 12.71951421412434 -2.0439320281574442 0 0 0
545 37 5 -0.271 -15.27093959100664 14.188142351439033 0.16207612465479734 0 0 0
541 37 4 0.134 -14.597670723792032 16.72851133215802 -1.9809266941439747 0 0 0
543 37 5 -0.08699999999999999 -15.340271947586087 15.468897601163636 -0.38333110655101 0 0 0
554 37 5 -0.08699999999999999 -13.788549896274295 14.760767238456264 -2.009699158932618 0 0 0
555 37 4 0.123 -13.15251012026529 14.92457336498092 -2.8712888551487357 0 0 0
542 37 5 -0.184 -14.57689632705927 15.762821141559927 -1.4453436459517792 0 0 0
552 37 5 -0.271 -13.75544413261032 13.504523014647663 -1.4826179564405357 0 0 0
321 22 4 0.147 -13.320754408407586 18.56445660610711 0.4592843360552023 0 0 0
318 22 5 -0.08699999999999999 -11.382403258657494 18.99138360453373 1.3513892123920495 0 0 0
320 22 5 -0.271 -12.696821754899876 19.34293822705731 0.9489592301839286 0 0 0
319 22 4 0.123 -10.922022977869501 18.049556213369566 0.9764167376599182 0 0 0
2127 309 2 0.5564 -9.995750944126355 13.231067204952856 -1.4362876828438707 0 0 0
2382 394 2 0.5564 -9.435926137678178 17.733760431747093 -4.027624396446329 0 0 0
435 29 4 0.123 -10.591809372572413 15.442360420597273 2.7141897519942226 0 0 0
434 29 5 -0.08699999999999999 -11.54788365017509 15.084634549039192 3.181071682400648 0 0 0
2542 448 1 -1.1128 -9.575949860970896 14.514817034230571 -3.0905425474838166 0 0 0
2543 448 2 0.5564 -8.971849329729777 14.328869742095039 -3.8093734620785176 0 0 0
2126 309 2 0.5564 -11.007562316107364 13.278098257667402 -0.3111561396507275 0 0 0
2544 448 2 0.5564 -9.175629292923297 15.248774464381116 -2.6244076674417123 0 0 0
2756 519 2 0.5564 -7.847524147059047 17.710348003992436 1.5226930394216605 0 0 0
1939 247 1 -1.1128 -9.267033867722363 10.852319815610828 4.705231187825864 0 0 0
2471 424 2 0.5564 -7.90821056065176 17.048180463943908 4.020923323958459 0 0 0
3058 620 1 -1.1128 -3.3934965224329443 14.768693891766743 -2.393622907638684 0 0 0
3059 620 2 0.5564 -3.4501984211018026 13.87933355927233 -2.0442593007611043 0 0 0
2604 468 2 0.5564 -0.32660264262805044 19.08427125502869 -4.106238884264725 0 0 0
2849 550 2 0.5564 -1.6812343062175987 13.074756492038153 -1.0837166646374832 0 0 0
2848 550 1 -1.1128 -0.7314753129946054 13.161536925840334 -1.0021155120605898 0 0 0
1606 136 1 -1.1128 -4.604064185459042 12.128631445092434 3.578731423039396 0 0 0
1607 136 2 0.5564 -5.259325853867494 11.454972219751328 3.7605201586774712 0 0 0
1942 248 1 -1.1128 -6.740590937306606 13.365161250868356 -0.8046088469442085 0 0 0
1944 248 2 0.5564 -6.431111952221488 13.784829225361248 -0.0019050623079372875 0 0 0
2307 369 2 0.5564 -9.001814320380845 17.267574565623132 -1.1132973883679431 0 -1 0
2472 424 2 0.5564 -6.4708579434043285 17.52299421442794 4.042473035179381 0 0 0
2755 519 1 -1.1128 -8.341273790978597 18.10137403029557 0.8019005906554898 0 0 0
2016 272 2 0.5564 -7.048178081940034 13.410065012698928 2.298775280436818 0 0 0
4160 987 2 0.5564 -0.9234040025463918 2.4973799947773476 -4.78204681130141 0 0 0
1573 125 1 -1.1128 -6.152387432592598 16.21830479672828 -2.023175852647361 0 -1 0
1734 178 2 0.5564 -2.79930244606363 16.57275476361286 -2.404295639351099 0 -1 0
1575 125 2 0.5564 -5.454125753507633 15.565215631193556 -2.0694022909605176 0 -1 0
1574 125 2 0.5564 -5.702936791379275 17.05759401510643 -2.122269581881385 0 -1 0
2603 468 2 0.5564 -0.9180303624375648 18.163099231642324 -3.060509235523843 0 0 0
1608 136 2 0.5564 -5.114892540556458 12.901797120423335 3.338937811743985 0 0 0
2305 369 1 -1.1128 -8.68288473911685 17.167568484719947 -2.0102447386307163 0 -1 0
2182 328 1 -1.1128 -2.937691480824765 -18.66814566780275 1.8426753931710564 0 1 0
2684 495 2 0.5564 -4.328263879754511 19.182083007985607 2.0601256935195305 0 0 0
2683 495 1 -1.1128 -3.9195598515823376 18.449265417911178 2.5207461694848683 0 0 0
1652 151 2 0.5564 -4.3988830580516565 18.213190073141472 4.467902199450649 0 0 0
2014 272 1 -1.1128 -6.483611906777235 14.121916415477092 1.9975038856123875 0 0 0
1644 148 2 0.5564 -3.761237030808753 12.169073724567834 -0.4951209393511158 0 0 0
2314 372 1 -1.1128 -4.988120432351882 18.9635304754015 -1.902363068767357 0 -1 0
2315 372 2 0.5564 -4.44475996669214 19.410508511881368 -1.253362412286852 0 -1 0
1923 241 2 0.5564 -6.218627804041723 12.451169667662153 -2.432783364198713 0 0 0
2316 372 2 0.5564 -5.00157804608291 19.55664639689306 -2.6535382457595067 0 -1 0
2921 574 2 0.5564 -2.0593583314871013 18.336677974942706 2.1319721005707493 0 0 0
1733 178 2 0.5564 -3.4573430395755036 17.935899830815423 -2.3775889392167318 0 -1 0
1732 178 1 -1.1128 -2.647171169203125 17.49121809550863 -2.6268107997761736 0 -1 0
2306 369 2 0.5564 -7.790917419071683 16.83442586503121 -1.9120502216138255 0 -1 0
1642 148 1 -1.1128 -3.5503538410105513 13.018816100345168 -0.10821266165015041 0 0 0
2757 519 2 0.5564 -7.920443808700423 18.948357733677557 0.6544132965024873 0 0 0
1504 102 1 -1.1128 -3.966037970840323 16.59405215112682 0.4122062157515016 0 0 0
1506 102 2 0.5564 -4.851100593668349 16.235955968751743 0.48049290241190995 0 0 0
1505 102 2 0.5564 -3.4081206702499833 15.829429717240394 0.2696838036314665 0 0 0
2685 495 2 0.5564 -3.8782267959540038 17.74928998013987 1.8691651554463744 0 0 0
1643 148 2 0.5564 -3.7225492576691006 12.906235623769083 0.8266168426153169 0 0 0
2015 272 2 0.5564 -6.683052310151741 14.85122394112955 2.584501234567834 0 0 0
1653 151 2 0.5564 -5.5229392220920595 19.187600148129174 4.748825571353665 0 0 0
2850 550 2 0.5564 -0.6086478029455686 13.865175369598255 -0.36490425046025865 0 0 0
2577 459 2 0.5564 -8.275861955071024 11.297867895795989 3.3436265034494066 0 0 0
2470 424 1 -1.1128 -7.11704455266477 17.09101171350749 3.4838445341706374 0 0 0
3348 716 2 0.5564 -0.47110667304557446 4.748906511020911 -1.1646199317480823 0 0 0
2920 574 1 -1.1128 -1.3365630150309475 18.156636942516183 1.5308199418373711 0 0 0
2255 352 2 0.5564 -12.017443919916511 -15.297501068961292 4.713581559118932 0 1 0
1736 179 2 0.5564 -10.414840315957026 -15.7135702358752 6.507698939366417 0 1 0
2256 352 2 0.5564 -12.20237981343269 -16.613523319825067 5.43868799191867 0 1 0
2254 352 1 -1.1128 -11.531266492588202 -15.98993688698181 5.16123763279491 0 1 0
1835 212 2 0.5564 -13.07619971645611 -10.833665579385189 10.138614876168495 0 1 0
2732 511 2 0.5564 -12.114404992103573 -16.61101613454403 12.192932131342944 0 1 0
1593 131 2 0.5564 -12.585793996192377 -16.75214402872224 9.91813701672796 0 0 -1
1735 179 1 -1.1128 -9.748074145757881 -15.909197898476146 7.166018411739819 0 1 0
1737 179 2 0.5564 -9.298064386207669 -15.076175658467733 7.306720131063433 0 1 0
2374 392 1 -1.1128 -13.14568484273086 -13.596747025251124 9.62324889815514 0 0 0
2375 392 2 0.5564 -13.41283857697117 -14.211900648477178 10.306217887146948 0 0 0
2376 392 2 0.5564 -12.786591890330277 -14.149694066787134 8.929322640198265 0 0 0
2797 533 1 -1.1128 -10.38889222762368 -18.39520861190293 8.502561299077021 0 1 0
2798 533 2 0.5564 -10.316689370057022 -17.650494634536425 7.905552342434311 0 1 0
2443 415 1 -1.1128 -8.777881857929712 -17.780318752044646 10.659704302294124 0 1 0
1636 146 1 -1.1128 -13.68209350926223 -16.801020894239624 6.713660407800114 0 0 0
2379 393 2 0.5564 -8.355731893978264 -12.58776091690536 6.4462147826905865 0 1 0
2377 393 1 -1.1128 -8.587896641809456 -13.338529230895183 6.992729448617696 0 1 0
2495 432 2 0.5564 -11.73854204858536 -13.492235628029423 10.723939016561522 0 1 0
2494 432 1 -1.1128 -11.387457718407427 -13.494143000966433 11.614426499590152 0 1 0
2496 432 2 0.5564 -11.261493101788739 -12.568862052211433 11.824711688436157 0 1 0
1990 264 1 -1.1128 -11.068840024233879 -18.013182517482388 12.42745887722679 0 0 0
1992 264 2 0.5564 -10.188139674828799 -17.747046936941857 12.16331763972665 0 0 0
2799 533 2 0.5564 -9.793352842107053 -19.05145633044843 8.140755245826613 0 1 0
1638 146 2 0.5564 -13.838825211011489 -17.69076629663799 6.397400896826594 0 0 0
2731 511 1 -1.1128 -12.659614988049832 -15.87822956696992 11.90657296209248 0 1 0
1591 131 1 -1.1128 -12.789116608618725 -17.33795351721654 9.188946385379838 0 0 -1
2733 511 2 0.5564 -12.226686397669713 -15.102959029393027 12.26400840010313 0 1 0
2612 471 2 0.5564 -9.89010602566671 -14.185661942030114 12.088463270653966 0 1 0
1691 164 2 0.5564 -6.9594057066616655 -12.194350642201174 11.53256841899248 0 1 -1
2444 415 2 0.5564 -9.47802136433903 -18.045300396153444 10.06319680735431 0 1 0
2378 393 2 0.5564 -7.829257851163277 -13.46416680127495 7.562741908510243 0 1 0
1592 131 2 0.5564 -12.04145980944846 -17.933978288063543 9.144274452133738 0 0 -1
2611 471 1 -1.1128 -9.174471657248938 -14.6672352946026 12.503416775762256 0 1 0
2625 475 2 0.5564 -6.983520773256331 -15.058478876818082 8.71699124700066 0 0 0
2832 544 2 0.5564 -9.065469628658825 18.860716181163838 8.32725582283951 0 0 0
2277 359 2 0.5564 -12.620238350078445 -19.338718093641305 10.190196993182191 0 1 0
2060 287 2 0.5564 -15.139806377052109 -10.731577314402914 8.76286139041271 0 0 0
3020 607 2 0.5564 -0.7895994146965069 -2.507533903636998 -9.97336071969722 0 0 0
1380 92 4 0.123 -0.19096484520807178 -9.186512966370158 18.211995620614456 0 0 -1
1266 85 4 0.147 -1.2926818518005128 -7.959855215561955 -11.988745487714116 0 0 0
251 17 4 0.123 -2.655165887756748 4.55894363761706 18.549779026359875 0 0 -1
4342 1048 1 -1.1128 -0.031499889601397706 9.599614848871953 1.466668149140268 0 -1 0
1984 262 1 -1.1128 -7.201896339020413 -15.54132296294328 10.625814748293259 0 0 0
591 40 4 0.147 -0.6064395966289536 -14.41268346073588 9.024749403281488 0 0 0
4325 1042 2 0.5564 -0.5591372430286109 -13.655978269663784 5.760689291817335 0 0 0
2600 467 2 0.5564 -2.80403384549631 -19.306924230271758 4.922521463502831 0 1 0
2601 467 2 0.5564 -4.113609063240546 -18.549353790605938 4.867795797156511 0 1 0
2599 467 1 -1.1128 -3.2201064822862517 -18.492994479373532 5.20648234103352 0 1 0
2280 360 2 0.5564 -7.626541879819657 -15.522196642658047 4.964050644473358 0 0 0
2398 400 1 -1.1128 -2.716781966964963 -15.900623411440952 4.059897315614278 0 0 0
2399 400 2 0.5564 -2.890324010305224 -16.712778455245882 4.5358376595540895 0 0 0
4326 1042 2 0.5564 -1.6102664320075304 -14.521883012593626 5.099454373325622 0 0 0
597 40 5 -0.271 -1.8789408185807703 -17.267851414952087 10.217671015191657 0 0 0
4324 1042 1 -1.1128 -1.4581496252776336 -13.63750118121634 5.432562554133634 0 0 0
590 40 5 -0.271 -0.8594565338219619 -15.146756847842225 9.771772461978907 0 0 0
593 40 3 -0.439 -2.5998619035984047 -15.919194531781713 8.120694631638916 0 0 0
2587 463 1 -1.1128 -5.893301691992035 -19.101529230517254 4.256187635150268 0 1 0
1508 103 2 0.5564 -5.1709561438842 -18.40822447949287 9.026687038998947 0 1 0
1507 103 1 -1.1128 -5.72376529632735 -17.976886541006632 9.678286198777757 0 1 0
1509 103 2 0.5564 -5.570239809623528 -17.041935292236527 9.5421689349569 0 1 0
2910 570 2 0.5564 -4.928362752258843 -14.081482409839522 4.823146352825032 0 0 0
2623 475 1 -1.1128 -6.292902398932418 -14.677331310155536 8.174769310351472 0 0 0
2279 360 2 0.5564 -7.848728297372344 -16.233592717921617 6.281792595931817 0 0 0
2278 360 1 -1.1128 -7.261596985108179 -16.205486583903898 5.526333329788987 0 0 0
592 40 5 0.296 -1.8057325930794133 -16.058862121972787 9.444118382521406 0 0 0
2909 570 2 0.5564 -5.668885038502051 -15.401768901065594 4.842265206136709 0 0 0
2624 475 2 0.5564 -5.689412977754107 -14.277366389934617 8.800916587884688 0 0 0
594 40 4 0.123 -3.4840259497012385 -16.56681837530777 8.287722432264824 0 0 0
598 40 4 0.147 -2.563377027947654 -18.05488335394775 9.87789926285019 0 0 0
596 40 4 0.123 -2.02233890944308 -16.283652600023817 7.2437984241510165 0 0 0
1724 175 2 0.5564 -4.8669404486009125 -12.683272180460243 10.08001700373254 0 0 0
595 40 4 0.123 -2.8361830046813736 -14.859107768431885 7.937532240937867 0 0 0
3147 649 2 0.5564 -2.554434004686752 -12.539710837424396 6.664555348350639 0 0 0
3146 649 2 0.5564 -3.2551227523681363 -12.340051681708688 7.991607146635963 0 0 0
1723 175 1 -1.1128 -4.8231507908231785 -12.254936405895382 9.225123605153371 0 0 0
1725 175 2 0.5564 -5.547002014578228 -11.628671891003767 9.233122864667473 0 0 0
1686 162 2 0.5564 -4.241001952120928 -18.997027248938238 6.899892939584809 0 1 0
3809 870 2 0.5564 -4.341840137510479 -12.089162074904065 6.026806862478933 0 0 0
3145 649 1 -1.1128 -2.9765192046529796 -11.871646619897561 7.204709109359727 0 0 0
2588 463 2 0.5564 -6.457364460040376 -18.408642167258677 4.599658967597042 0 1 0
2445 415 2 0.5564 -8.104824453993116 -18.45258019940022 10.553450054280358 0 1 0
3808 870 1 -1.1128 -5.056520348652327 -12.396716138654169 5.46924563526853 0 0 0
3810 870 2 0.5564 -5.8357869300051215 -11.96294642689617 5.81683623396037 0 0 0
1985 262 2 0.5564 -7.613213014044642 -16.405475949120003 10.60878256062935 0 0 0
1588 130 1 -1.1128 -5.328327993672443 -13.720478104676639 11.379392733079767 0 0 0
1589 130 2 0.5564 -5.782126618146269 -14.522303864128416 11.11982755242642 0 0 0
1692 164 2 0.5564 -7.643411061093391 -11.052871539264475 12.254411253047019 0 1 -1
1690 164 1 -1.1128 -7.5788077747462435 -11.476954751279637 11.398717637404665 0 1 -1
1836 212 2 0.5564 -11.631419094155195 -10.425564195705942 10.333441484735093 0 1 0
1834 212 1 -1.1128 -12.408771483172933 -10.71079101324064 10.813650600945037 0 1 0
2748 516 2 0.5564 -13.037874362700467 -9.113455631378464 5.173613037105211 0 0 0
2390 397 2 0.5564 -11.438171436611817 -6.6245346008365456 8.176436395767121 0 0 0
2926 576 1 -1.1128 -13.350786561081117 -12.026628369515858 1.611251023093903 0 1 0
2553 451 2 0.5564 -13.58767591058586 -6.265398347726612 5.421177272515055 0 0 0
2351 384 2 0.5564 -12.808825153832716 -6.507336554672542 12.333783104778837 0 0 0
2352 384 2 0.5564 -12.752214155284038 -6.107885908879199 13.792936823835584 0 0 0
2350 384 1 -1.1128 -12.278193197906077 -6.022301526216592 12.965766172691593 0 0 0
2551 451 1 -1.1128 -13.341628689370697 -5.349719562291922 5.552420902826434 0 0 0
2552 451 2 0.5564 -12.458801078705365 -5.388795169043103 5.9202800030038185 0 0 0
2389 397 1 -1.1128 -12.162671051839578 -7.191904150225355 8.439920584768162 0 0 0
2061 287 2 0.5564 -14.274340628786936 -11.954425213458633 8.980822458323694 0 0 0
2059 287 1 -1.1128 -14.240205289957782 -11.047238615394752 8.677377124860858 0 0 0
2747 516 2 0.5564 -12.966405931913918 -8.307197456173538 6.452962567384857 0 0 0
2746 516 1 -1.1128 -12.9468664150062 -8.218271835427156 5.500102514558358 0 0 0
2387 396 2 0.5564 -11.13618254625564 -7.989171667813005 5.377502107380136 0 0 0
2391 397 2 0.5564 -12.680961667803919 -6.656110689384484 9.040363738666597 0 0 0
4389 1063 2 0.5564 -10.047335012295285 -4.883446678956 6.544564661007063 0 0 0
2620 474 1 -1.1128 -13.425730939456995 -8.112155634865637 11.533470643882964 0 0 0
2622 474 2 0.5564 -13.68519819580056 -8.266737889858065 12.44177286589049 0 0 0
2388 396 2 0.5564 -10.129232440973565 -6.860892441518492 5.3072692211879176 0 0 0
2386 396 1 -1.1128 -10.209163258951618 -7.792454088025649 5.51229557923727 0 0 0
2714 505 2 0.5564 -8.205829839971928 -11.046306789556017 4.8979046363059675 0 0 0
2085 295 2 0.5564 -12.638009104000592 -11.551539039209118 4.712717305801139 0 0 0
2083 295 1 -1.1128 -12.660298234370039 -10.726303948382123 4.2282360586944785 0 0 0
2084 295 2 0.5564 -13.095151451387174 -10.943752673591174 3.403705541923168 0 0 0
2290 364 1 -1.1128 -10.3690224158609 -9.323214032607808 9.650542235562652 0 0 -1
2292 364 2 0.5564 -11.049475426330378 -8.667158314128514 9.801560238962164 0 0 -1
2291 364 2 0.5564 -9.751802273550036 -9.199161677621973 10.37157076503615 0 0 -1
2715 505 2 0.5564 -7.713673611705192 -10.261147242370852 6.095068709087402 0 0 0
2713 505 1 -1.1128 -7.720349045426563 -11.140682136252941 5.717437116407824 0 0 0
1896 232 2 0.5564 -9.207372683012414 -8.715358399006313 8.00678755560764 0 0 0
1894 232 1 -1.1128 -8.45569463711822 -8.459106635348874 7.472421556631583 0 0 0
1895 232 2 0.5564 -8.824690075119749 -8.286570306774077 6.60621983016665 0 0 0
4387 1063 1 -1.1128 -10.647643535603358 -5.0812175468749805 7.263416655176566 0 0 0
2787 529 2 0.5564 -10.194014658911751 -4.1953142224927795 11.40799174800409 0 0 0
2785 529 1 -1.1128 -11.09650875440124 -4.157651897216429 11.091261933892405 0 0 0
2621 474 2 0.5564 -13.321852121096704 -8.987860090729948 11.16120365543212 0 0 0
2786 529 2 0.5564 -11.583570057174585 -4.727984191107294 11.686009067746133 0 0 0
3049 617 1 -1.1128 -0.8632146396552758 -4.780727315027565 9.975758480896763 0 0 0
1559 120 2 0.5564 -6.409793086053846 -7.795850147584347 4.890739509856173 0 0 0
1558 120 1 -1.1128 -5.856290783531005 -8.161803650581113 5.580627201045943 0 0 0
1560 120 2 0.5564 -6.381357692115765 -8.082359208063737 6.377009675100368 0 0 0
1817 206 2 0.5564 -7.385435558879549 -10.803771448909137 9.435008077042651 0 0 0
1818 206 2 0.5564 -7.544925774216668 -9.637700729644157 8.482780736509635 0 0 0
2867 556 2 0.5564 -4.132145480991002 -7.388920955520303 6.607387935812975 0 0 0
581 39 4 0.123 -0.9228045648924591 9.178758431449635 -16.912885613849866 0 0 0
2406 402 2 0.5564 -1.5924665404019005 -12.334712444397484 4.362991957219697 0 0 0
2405 402 2 0.5564 -2.593400856710058 -11.34559941425171 3.804707873119541 0 0 0
2404 402 1 -1.1128 -1.6911507214943295 -11.648598701189055 3.7028850035126406 0 0 0
2743 515 1 -1.1128 -4.3806135007418305 -9.975497928491087 3.5538794973648447 0 0 0
2745 515 2 0.5564 -4.781574569838894 -9.125926635024431 3.737429705988857 0 0 0
4396 1066 1 -1.1128 -3.30567442280581 -4.59210810456 8.425060392224626 0 0 0
4397 1066 2 0.5564 -3.4436642154390245 -5.414229646002871 7.954627795304714 0 0 0
1779 193 2 0.5564 -1.6222008679849744 -9.36377820213608 8.888895782835379 0 0 0
2868 556 2 0.5564 -3.763605921548015 -7.553106715614811 8.066537273566249 0 0 0
2866 556 1 -1.1128 -3.5587776545440097 -7.035778159559945 7.287660917519972 0 0 0
1778 193 2 0.5564 -2.3245847336240506 -10.571008619680546 8.304818022999667 0 0 0
2432 411 2 0.5564 -3.285469017146237 -8.202566136521316 10.99357985205228 0 0 0
2744 515 2 0.5564 -4.772308686588565 -10.569154896846976 4.1944870908262635 0 0 0
2777 526 2 0.5564 -5.186253946636554 -9.148712136558924 9.318740454379045 0 0 0
2431 411 1 -1.1128 -2.6199138524714534 -7.730535160143036 11.494034575970854 0 0 0
2433 411 2 0.5564 -3.1014386062901207 -7.335639987386182 12.220962044385391 0 0 0
2776 526 1 -1.1128 -4.417486825246045 -8.839607952438296 9.797993579430596 0 0 0
2778 526 2 0.5564 -3.7281123557902602 -9.465090619990608 9.574910278417859 0 0 0
444 30 4 0.123 -7.654503204520955 -5.669045665898474 7.751539173461865 0 0 0
445 30 4 0.123 -6.45157181967903 -4.803481284774081 8.676691585586605 0 0 0
443 30 3 -0.439 -7.393050345504036 -4.678875874726091 8.150535020683732 0 0 0
446 30 4 0.123 -8.313488749131757 -4.324883263755079 8.684076705083509 0 0 0
441 30 4 0.147 -5.247988851326952 -4.2988386333506705 6.537863439362761 0 0 0
1777 193 1 -1.1128 -2.1903295577856174 -10.096922188422349 9.125457676574793 0 0 0
4398 1066 2 0.5564 -4.187341471894328 -4.2523528867371985 8.578231618953152 0 0 0
4112 971 2 0.5564 -1.2381408205530278 -7.091336065793696 7.936491990910559 0 0 0
4111 971 1 -1.1128 -0.7324943209240461 -7.595633006726452 8.573859914958142 0 0 0
440 30 5 -0.271 -5.964792823950833 -3.5745436875470564 6.307635478025864 0 0 0
3069 623 2 0.5564 -0.9723178445810694 -7.739715117613885 11.991372595224853 0 0 0
1816 206 1 -1.1128 -6.885655465288294 -10.1350257759022 8.966787061637309 0 0 0
673 45 4 0.147 -2.4507657033489485 -5.548127674039593 5.2452531118607775 0 0 0
442 30 5 0.296 -7.191414584396138 -3.7491766482701907 6.928063206567092 0 0 0
672 45 5 -0.271 -2.5882825861104357 -5.454983504641425 4.17134896409141 0 0 0
2148 316 2 0.5564 -0.5901196655745216 1.139722469366217 19.645132352430718 0 0 0
3444 748 2 0.5564 -0.39133879566990243 -10.970548056757277 10.033551704331648 0 0 0
2841 547 2 0.5564 -14.409409015285139 -0.9457783512560574 6.295185626657172 0 0 0
228 16 5 -0.08699999999999999 -19.887392824322333 4.214908467043131 8.525862190327832 0 0 -1
227 16 5 -0.184 -19.41892030168766 2.9383965757521384 8.782218926402573 0 0 -1
229 16 4 0.123 -20.747474977084398 4.5958459033381835 9.12265154898227 0 0 -1
226 16 4 0.134 -19.797700217548634 2.341693320975967 9.61020803743962 0 0 -1
239 16 5 -0.08699999999999999 -18.42497515619096 2.3807406505397317 7.984774360941211 0 0 -1
230 16 5 -0.271 -19.466824876266724 4.952544901942147 7.4405091818150755 0 0 -1
231 16 4 0.147 -19.901404694588173 5.880253683958561 7.183368467658559 0 0 -1
232 16 5 0.296 -18.515885311237042 4.375062373487395 6.604496638468154 0 0 -1
2675 492 2 0.5564 -11.714926381473159 -0.4083116749702138 3.7061711092235026 0 0 0
2730 510 2 0.5564 -13.798517230838593 1.7409822609431458 4.687485247184171 0 0 0
2728 510 1 -1.1128 -13.413137897991724 1.2360667775920935 5.403568278837255 0 0 0
1821 207 2 0.5564 -14.508072154096682 -2.863666775280548 7.21121153421659 0 0 0
1819 207 1 -1.1128 -14.105569121785631 -3.577235750554211 7.706229146714893 0 0 0
1820 207 2 0.5564 -14.032272545408732 -4.2945447808050465 7.0766840504267075 0 0 0
4388 1063 2 0.5564 -10.66652358661507 -4.280468152636403 7.7875117875199455 0 0 0
2839 547 1 -1.1128 -14.801083242503976 -1.72390582840423 5.8985236022065335 0 0 0
1563 121 2 0.5564 -11.1055366092577 -3.0983584031235343 9.611842439743809 0 0 0
2729 510 2 0.5564 -13.806658639339824 1.6033070261850213 6.195090772229661 0 0 0
2709 503 2 0.5564 -9.531396315860405 1.9697301929520197 5.368053620026855 0 0 0
2058 286 2 0.5564 -11.434374640482078 0.5865004941414762 10.21088816375693 0 0 0
2056 286 1 -1.1128 -12.198694577210174 0.7975334371399481 10.747089587164975 0 0 0
2057 286 2 0.5564 -12.180807324812793 1.7513397060728693 10.82561008597886 0 0 0
2079 293 2 0.5564 -13.297267675704147 -1.1492915641468018 8.289315850727348 0 0 0
2078 293 2 0.5564 -13.342621042869707 0.11731771674800089 9.117288769863755 0 0 0
2077 293 1 -1.1128 -13.524151737752794 -0.22066017437970936 8.240334170108293 0 0 0
2820 540 2 0.5564 -10.94719641404029 1.9036517396948924 6.966938704778726 0 0 0
2819 540 2 0.5564 -11.595257071121527 0.8110378990168289 6.143466103602282 0 0 0
2818 540 1 -1.1128 -10.751915478028828 1.0921051498253642 6.498441995721887 0 0 0
1561 121 1 -1.1128 -11.207636408799088 -2.8234980067583284 8.70065680398551 0 0 0
1521 107 2 0.5564 -10.45074309960211 -1.1205990479368066 8.675912495786507 0 0 0
1520 107 2 0.5564 -10.124783960442565 0.26647562376132583 8.164375908750051 0 0 0
1562 121 2 0.5564 -12.113202227434984 -3.0447099728343376 8.48329161547259 0 0 0
1519 107 1 -1.1128 -10.319397204238998 -0.2181077050059787 8.966583194095008 0 0 0
2802 534 2 0.5564 -9.05032682346429 0.5870446672985576 10.25960794328362 0 0 0
2566 456 1 -1.1128 -11.087972827378131 3.7516636442377025 10.51433510590949 0 0 0
2800 534 1 -1.1128 -8.456841600312227 1.0210935705256217 10.87247703809107 0 0 0
2567 456 2 0.5564 -10.839766820896303 3.4837810577050243 11.399131407824836 0 0 0
2266 356 1 -1.1128 -11.527017632399643 3.756113230151027 7.104537133386368 0 0 -1
2267 356 2 0.5564 -12.351101255126416 3.94933968302591 6.657567821257196 0 0 -1
2268 356 2 0.5564 -11.781985281186529 3.570354244435273 8.00826105590528 0 0 -1
2801 534 2 0.5564 -7.762952023253991 1.38132838343071 10.320227223370464 0 0 0
2707 503 1 -1.1128 -8.735205142688493 2.3501740947997374 4.997144143602146 0 0 0
1881 227 2 0.5564 -9.0592553628728 2.3844117593821172 11.987620957461385 0 0 0
1272 85 5 -0.271 -0.15356310947461813 -7.895066049150708 -15.202532312344808 0 0 0
669 45 4 0.123 -2.5140686185710193 -2.1766725242812335 4.6588109100977295 0 0 0
668 45 3 -0.439 -1.8688588457643465 -3.0370285042414267 4.263542167450745 0 0 0
671 45 4 0.123 -1.1706963130953298 -2.512755895374533 3.5136506777934784 0 0 0
2556 452 2 0.5564 -7.658987798451882 2.184981073448703 2.1067498599374255 0 0 0
3051 617 2 0.5564 -1.670112186534877 -4.561961745652203 9.509614990004794 0 0 0
774 52 4 0.123 -1.9636098997973175 -1.6172448113662778 8.091237908446129 0 0 0
2554 452 1 -1.1128 -7.783454030259015 1.3386501508136635 2.536242521797026 0 0 0
448 30 4 0.147 -9.212223123360772 -2.971398530023295 6.75983257297944 0 0 0
450 30 4 0.123 -8.765521249148481 -1.4429321414839487 4.975314905717021 0 0 0
449 30 5 -0.08699999999999999 -7.903729319158224 -2.094710063547781 5.275338866499722 0 0 0
670 45 4 0.123 -1.3884953231827235 -3.3413362419980777 5.124137236172563 0 0 0
667 45 5 0.296 -2.700259925149631 -4.148689324097873 3.729866602422793 0 0 0
2555 452 2 0.5564 -8.047218660912142 1.5593360421622617 3.429527247045362 0 0 0
439 30 4 0.123 -4.620601999701683 -2.7141176892414514 4.762076720161754 0 0 0
447 30 5 -0.271 -8.184654000409779 -2.9423873526419064 6.3479340035620035 0 0 0
436 30 4 0.134 -6.418609768950913 -1.2447079110259907 3.9763829469144794 0 0 0
437 30 5 -0.184 -6.609998044773232 -1.9351329171901563 4.742143906615599 0 0 0
438 30 5 -0.08699999999999999 -5.617179563466267 -2.7344099040351058 5.284250406148133 0 0 0
1080 72 4 0.123 -4.006587631346215 0.21815260977692252 3.3964432192022267 0 0 0
771 52 4 0.147 -5.659967870459267 -0.86230703978823 8.502650846926327 0 0 0
1079 72 5 -0.08699999999999999 -3.51948921924153 0.6340134048904754 4.317033935166016 0 0 0
1067 72 5 -0.184 -2.17273905596235 0.7504560578863465 4.4739199677732335 0 0 0
776 52 4 0.123 -2.6551874033269978 0.03599043228867874 8.113345287473221 0 0 0
773 52 3 -0.439 -2.937397137730418 -1.0578052885160343 8.127364335901412 0 0 0
770 52 5 -0.271 -5.108559177502015 -1.2209816767246107 9.376833629643839 0 0 0
1070 72 5 -0.271 -2.5131124310893753 1.9552773995173536 6.445790657770971 0 0 0
1068 72 5 -0.08699999999999999 -1.61501913438062 1.3579457559719252 5.548342110295067 0 0 0
768 52 5 -0.08699999999999999 -5.792917487397828 -1.4799957605689387 10.530552099368263 0 0 0
772 52 5 0.296 -3.7139670892811485 -1.3222112869048452 9.422510039657606 0 0 0
777 52 5 -0.271 -3.0600073996664863 -1.5463151579421295 10.63505375929481 0 0 0
778 52 4 0.147 -1.996376181084805 -1.538908805667026 10.586228447403194 0 0 0
1077 72 5 -0.271 -4.387634502746803 1.216662674069826 5.233753849775431 0 0 0
1078 72 4 0.147 -5.418173473849213 1.040817377239319 5.139724974423656 0 0 0
2323 375 1 -1.1128 -7.054330009087562 3.268637800374895 10.004155919247662 0 0 0
2325 375 2 0.5564 -6.385258894116228 3.634051705241183 10.582989512084206 0 0 0
1072 72 5 0.296 -3.897013066897754 1.9118372966780335 6.250831655884177 0 0 0
1074 72 4 0.123 -4.373865299521564 1.6445322432224503 8.22766810623229 0 0 0
2324 375 2 0.5564 -7.579325270268915 4.023359581596067 9.737684841344969 0 0 0
775 52 4 0.123 -3.5361112016930387 -1.3307860127231725 7.258827487042883 0 0 0
2708 503 2 0.5564 -8.246908731555184 2.6711976456791824 5.755261743579386 0 0 0
1073 72 3 -0.439 -4.825196412972083 2.1697794774449135 7.420988366168277 0 0 0
1899 233 2 0.5564 -4.598103113366665 3.749696037163065 12.412595201554339 0 0 0
1897 233 1 -1.1128 -4.8674049514862565 4.164721129600675 11.593166997385799 0 0 0
1069 72 4 0.123 -0.5316805002394864 1.25931752454071 5.635570268484073 0 0 0
69 5 4 0.123 -16.630565788003032 8.119694590815742 12.348601765088489 0 0 0
73 5 4 0.147 -16.52659302607787 4.520491313604808 13.690368970984402 0 0 0
70 5 4 0.123 -16.355755599684908 7.523440348435902 13.959741712348858 0 0 0
429 29 4 0.123 -12.104314654457745 11.32216552709499 4.6432361127379655 0 0 0
233 16 3 -0.439 -17.94782204842315 5.317542573137953 5.555717546049049 0 0 -1
65 5 5 -0.271 -18.70908202451952 6.671898648973487 12.209974547039938 0 0 0
63 5 5 -0.08699999999999999 -19.69872386667465 5.732445572984803 11.851499376631628 0 0 0
66 5 4 0.147 -18.850227610914228 7.72395038009113 12.103851929799765 0 0 0
71 5 4 0.123 -15.455079868298188 6.754473323576336 12.609464108492137 0 0 0
67 5 5 0.296 -17.551697814563692 6.235821343931016 12.852826068566028 0 0 0
68 5 3 -0.439 -16.42722608825268 7.215186485496949 12.92994129951237 0 0 0
72 5 5 -0.271 -17.4094003613582 4.8927855086990695 13.18554913224855 0 0 0
234 16 4 0.123 -17.28437826151019 6.036791261611461 5.998501185440055 0 0 -1
62 5 5 -0.184 -19.615590418497284 4.3962371128528535 12.20929245175552 0 0 0
74 5 5 -0.08699999999999999 -18.46138591348678 3.9850194367553935 12.900244059590138 0 0 0
2295 365 2 0.5564 -16.94333406127661 4.638359563301869 8.668146265679898 0 0 0
2102 301 2 0.5564 -8.983964308404742 3.921151863145121 4.131428140409873 0 0 0
2185 329 1 -1.1128 -10.550358009911957 8.517366166046184 5.345747120787766 0 0 0
2187 329 2 0.5564 -10.703596429690183 7.781451272763321 5.938350503099713 0 0 0
1826 209 2 0.5564 -14.066319643115085 3.995926228806154 4.808500664217143 0 0 0
2568 456 2 0.5564 -10.364137362495175 4.3039208879864415 10.218859282382436 0 0 0
2871 557 2 0.5564 -8.26976111205541 4.873081207088635 7.428566335572123 0 0 0
2869 557 1 -1.1128 -7.88068321481577 4.463354897892858 6.655925046233826 0 0 0
431 29 4 0.123 -13.700547515247449 11.214391443070184 4.088169975924291 0 0 0
75 5 4 0.123 -18.18712079772481 2.9131899262074668 13.055770567090882 0 0 0
1982 261 2 0.5564 -13.502905418656871 7.529553768004004 5.170404857178369 0 0 0
1981 261 1 -1.1128 -13.459100167351423 6.806035260832523 4.545237742078801 0 0 0
1825 209 1 -1.1128 -14.133255271263804 4.254515140003812 5.727675976783304 0 0 0
1827 209 2 0.5564 -14.697925222816822 3.590523307947478 6.123269872417619 0 0 0
1983 261 2 0.5564 -13.732275971186642 6.03820418818859 5.047275847108197 0 0 0
305 21 5 -0.271 -10.2820459918337 12.333682031614318 9.150296269197119 0 0 0
306 21 4 0.147 -9.267019766552881 12.394216732992463 9.62148478685684 0 0 0
2294 365 2 0.5564 -16.606715621278372 4.762838103222038 10.138890398549766 0 0 0
2293 365 1 -1.1128 -16.218586074025417 4.821825194834742 9.265902534171635 0 0 0
303 21 5 -0.08699999999999999 -10.58584048761779 13.247486812984613 8.181012468808005 0 0 0
304 21 4 0.123 -9.831596035034215 13.58325342916607 7.450205500697849 0 0 0
2538 446 2 0.5564 -14.018762522569054 1.7745469534373088 8.085815217627264 0 0 0
2537 446 2 0.5564 -14.969947694988859 2.9001106620132284 8.432583328532722 0 0 0
2536 446 1 -1.1128 -14.370761813049269 2.5987574871986894 7.74965263868111 0 0 0
307 21 5 0.296 -11.334469968783495 11.56641581510917 9.753772971429633 0 0 0
2889 563 2 0.5564 -11.238147652107038 5.457953644524726 7.272512684994222 0 0 0
2888 563 2 0.5564 -11.657592530157437 6.687525640293993 8.049760157204327 0 0 0
2887 563 1 -1.1128 -10.918868679050009 6.308738938692591 7.573273564836493 0 0 0
1780 194 1 -1.1128 -9.078133819178122 5.441965189991291 9.659197333385551 0 0 0
1781 194 2 0.5564 -9.648118388290214 6.1458226740050685 9.349465461965332 0 0 0
1782 194 2 0.5564 -8.873555720072423 5.679276403344684 10.563665616683679 0 0 0
2870 557 2 0.5564 -8.143515211428953 5.026289580169408 5.927738489247789 0 0 0
2106 302 2 0.5564 -14.677323103372805 5.919461266905656 9.277127269072912 0 0 0
2104 302 1 -1.1128 -14.292610318586346 6.795926660662181 9.283148519452796 0 0 0
2288 363 2 0.5564 -13.24047675790121 8.920609676829413 7.3621797473940465 0 0 -1
2287 363 1 -1.1128 -13.711013989135054 8.247469062363791 6.870541435741426 0 0 -1
2289 363 2 0.5564 -14.25989816371284 7.8130543497006 7.523413442023627 0 0 -1
726 49 4 0.147 -7.373624226723997 10.069213689865103 9.448589074193457 0 0 0
731 49 4 0.123 -5.385051939597557 7.248653994293227 9.10304656001122 0 0 0
3865 889 1 -1.1128 -8.244518055712666 5.7995077193892275 12.309713939282423 0 0 0
427 29 5 0.296 -12.942450160192308 13.269352922782616 4.017172918812215 0 0 0
2246 349 2 0.5564 -12.127846813058207 5.691622791836294 11.393952499083474 0 0 0
2245 349 1 -1.1128 -12.225619216282029 6.587203351709306 11.07052113718139 0 0 0
2105 302 2 0.5564 -13.661556861426115 6.776084977196739 10.002599462805573 0 0 0
4419 1073 2 0.5564 -2.4856561318589563 7.5986352868523435 9.075505041763888 0 0 0
4417 1073 1 -1.1128 -1.8271869750704013 7.275331623909765 9.690423651332175 0 0 0
460 31 4 0.123 -5.284576968349539 5.950813192433813 5.9972844778783045 0 0 0
461 31 4 0.123 -5.1733236968143474 7.510966043488981 5.351730924077626 0 0 0
4338 1046 2 0.5564 -3.39726847837838 4.357127021074862 10.548516536582474 0 0 0
1076 72 4 0.123 -5.8414810051765915 1.8559620008204039 7.333233724160143 0 0 0
2952 584 2 0.5564 -1.5389847527863898 10.761192380759244 11.462938414933046 0 0 0
3718 840 1 -1.1128 -2.6872544933109994 9.386615350294136 11.440436100664757 0 0 0
3719 840 2 0.5564 -2.2813217187532095 8.889643289744095 10.730176147353617 0 0 0
724 49 4 0.123 -6.465235463342369 12.458074818779508 8.818597721609049 0 0 0
729 49 4 0.123 -6.755183609229385 7.827104163294959 9.808033914809057 0 0 0
1071 72 4 0.147 -2.0303269019845263 2.2412219360268164 7.404429629021007 0 0 0
1075 72 4 0.123 -4.813801973995608 3.2090730092906874 7.682043735484604 0 0 0
1005 67 4 0.123 -1.0277893390891606 6.908891672722902 6.764979168341171 0 0 0
1273 85 4 0.147 -0.5260222625282377 -8.161775795409014 -16.178726431320058 0 0 0
722 49 5 -0.184 -4.708021398578367 11.6840561142937 8.030207985164749 0 0 0
3312 704 2 0.5564 -5.029546124335626 12.080255385515434 10.941358952926928 0 0 0
3310 704 1 -1.1128 -4.828160737955126 11.46043991645568 11.642432746036379 0 0 0
733 49 4 0.147 -4.225255429011925 8.500396719437575 7.137275164597284 0 0 0
732 49 5 -0.271 -4.629063267721977 9.299407482077838 7.713584096903521 0 0 0
727 49 5 0.296 -5.8323313449959135 9.13400466988699 8.410220197522964 0 0 0
725 49 5 -0.271 -6.495141596705884 10.257145931293081 8.857263406008352 0 0 0
734 49 5 -0.08699999999999999 -4.026111519630717 10.579403547051916 7.532737498188379 0 0 0
728 49 3 -0.439 -6.289007017627465 7.795372184841084 8.86715807359396 0 0 0
723 49 5 -0.08699999999999999 -5.9509228926222235 11.510319508599931 8.657410748028743 0 0 0
735 49 4 0.123 -3.2823831718830285 10.68807617383415 6.706759831406106 0 0 0
578 39 3 -0.439 -0.3466666620092834 10.079053220542798 -16.956505890735603 0 0 0
721 49 4 0.134 -4.390439997715344 12.673127565563505 7.676779310356208 0 0 0
730 49 4 0.123 -6.990517837140782 7.171425689635364 8.248628410973645 0 0 0
3311 704 2 0.5564 -3.9574003359802106 11.127357059862861 11.425490419420875 0 0 0
2282 361 2 0.5564 -5.849750585230712 8.924047406331276 11.908334451669893 0 0 0
3867 889 2 0.5564 -7.327528643181 5.905803388811313 12.56282158675008 0 0 0
3720 840 2 0.5564 -2.7709524170305095 8.75701631952274 12.156558631350704 0 0 0
2950 584 1 -1.1128 -0.8594579312889737 11.434822476574448 11.436526651223206 0 0 0
2251 351 1 -1.1128 -2.299590403069857 12.231624775644942 4.5349746060014136 0 0 0
4337 1046 2 0.5564 -2.547553610071005 4.078183023549696 9.327013331612717 0 0 0
4336 1046 1 -1.1128 -2.56737312498024 4.59282726671337 10.133846850690775 0 0 0
1004 67 5 -0.08699999999999999 -0.3057936395274944 6.557612367128893 6.030757919176464 0 0 0
1898 233 2 0.5564 -4.592716918479322 5.077085648633989 11.684650851529662 0 0 0
4418 1073 2 0.5564 -2.0536737412483297 6.354739448894038 9.822505232620845 0 0 0
426 29 4 0.147 -15.029162708168432 13.814127400512092 4.421560716541377 0 0 0
302 21 5 -0.184 -11.964241710539316 13.394847338616394 7.852798797562241 0 0 0
301 21 4 0.134 -12.246976878343185 14.125277459522051 7.138478358490714 0 0 0
312 21 5 -0.271 -12.684590800368586 11.750362599901928 9.487756818121435 0 0 0
314 21 5 -0.08699999999999999 -12.975917131573137 12.674085493842291 8.519580329526255 0 0 0
313 21 4 0.147 -13.46745817949068 11.410260146669335 10.19773397083006 0 0 0
315 21 4 0.123 -14.031393261418321 12.615719825045545 8.081528303289383 0 0 0
425 29 5 -0.271 -14.103545675396585 14.0807601440116 3.9110327013332706 0 0 0
423 29 5 -0.08699999999999999 -13.962078947810316 15.353673160500664 3.4164891238014934 0 0 0
424 29 4 0.123 -14.85172593296973 15.890691113287303 3.1650442875640654 0 0 0
2705 502 2 0.5564 -9.744236099368957 18.012071470809275 10.289321713053445 0 0 0
1572 124 2 0.5564 -9.16088585438617 18.371746420200786 6.066234470982954 0 0 0
1570 124 1 -1.1128 -9.304040703320519 17.799073269483376 5.31272012378617 0 0 0
1571 124 2 0.5564 -10.20611451094859 17.49433317346698 5.410843032081044 0 0 0
422 29 5 -0.184 -12.721125271361714 15.86301824119429 3.1281116937252613 0 0 0
421 29 4 0.134 -12.631533820718001 16.908305707711815 2.878243194826413 0 0 0
2522 441 2 0.5564 -12.866333939913924 -19.755448944014837 5.0241129715813155 0 1 0
2706 502 2 0.5564 -10.701617375354305 17.04938473316812 9.619582577977509 0 0 0
2704 502 1 -1.1128 -10.113327476147413 17.781969824366072 9.43664553701061 0 0 0
2521 441 1 -1.1128 -13.103643545285719 -19.489502466326783 5.912475768899261 0 1 0
2523 441 2 0.5564 -12.558145777240114 19.96575594798992 6.4798562648806035 0 0 0
2661 487 2 0.5564 -12.07934850530133 15.091809466229961 9.82271295810366 0 0 -1
105 7 4 0.123 -8.440361939356926 15.845270569281274 7.138252308848234 0 0 0
2659 487 1 -1.1128 -11.404253379672623 15.701713094579913 10.120195673953152 0 0 -1
1695 165 2 0.5564 -12.653594871223984 17.2198837503288 7.2169432815285415 0 -1 0
1693 165 1 -1.1128 -12.154814813547565 17.976944805049516 6.909845864339975 0 -1 0
1694 165 2 0.5564 -11.332953975672886 17.937297931669473 7.398931464375481 0 -1 0
103 7 4 0.147 -8.561622272111634 15.464269284075773 9.60673559189285 0 0 0
2830 544 1 -1.1128 -8.644564205289768 19.43287621990379 7.685614720919274 0 0 0
2500 434 1 -1.1128 -9.079469935770405 18.524693446441255 12.03722410744005 0 0 0
104 7 5 -0.08699999999999999 -7.574380718635524 15.434054841064912 7.650542705867406 0 0 0
2501 434 2 0.5564 -8.223481593207335 18.93279492174993 11.906959084900393 0 0 0
2502 434 2 0.5564 -9.541642568114098 19.11967514410546 12.627668881605594 0 0 0
102 7 5 -0.271 -7.598985422647129 15.365966477307753 9.10279715282525 0 0 0
101 7 4 0.123 -6.96864076787446 16.233630062488913 11.694471045651547 0 0 0
91 7 4 0.134 -6.307993222257756 15.51686533510189 5.920059560370962 0 0 0
2660 487 2 0.5564 -11.581566962606466 15.819431630726168 11.053434170615741 0 0 -1
2099 300 2 0.5564 -1.5427219374113406 14.613192953490655 7.786372911703819 0 0 0
1651 151 1 -1.1128 -5.059848384899584 18.43796371870565 5.122755990263371 0 0 0
1684 162 1 -1.1128 -4.250848230425121 -19.40113164023837 7.767553217636479 0 1 0
1577 126 2 0.5564 -1.5877360613707379 12.90036829943214 6.151599001603564 0 0 0
2951 584 2 0.5564 -1.3413756304765976 12.259549297955251 11.374779059687931 0 0 0
2123 308 2 0.5564 -0.17142846147568502 -13.589660207863826 13.706144374541335 0 0 0
3928 910 1 -1.1128 -2.116092621738419 13.7725660815018 11.163635617974009 0 0 0
3929 910 2 0.5564 -1.649011658009832 14.407230806823344 11.707021156887734 0 0 0
2831 544 2 0.5564 -7.706852383446897 19.29755080840666 7.822053019164586 0 0 0
2395 399 1 -1.1128 -1.7780419056511922 19.077987491408745 4.8186858038665745 0 0 0
2396 399 2 0.5564 -2.2433156015311138 18.448450771066 5.369535838528108 0 0 0
1696 166 1 -1.1128 -7.019078027612191 -19.897445552260603 11.206806699668537 0 1 0
1698 166 2 0.5564 -6.568896089503149 19.383936849472647 10.762783271415659 0 0 0
3930 910 2 0.5564 -2.0222687736512275 14.105666603755925 10.271182309189326 0 0 0
1685 162 2 0.5564 -4.763460744300493 19.79855042228834 7.653748889112488 0 0 0
2063 288 2 0.5564 -5.761040533366257 18.418770157819385 6.763587957526708 0 0 0
99 7 4 0.123 -6.748858139885878 14.549041404818857 11.903153522050017 0 0 0
2548 450 1 -1.1128 -2.0412435987617275 16.826780054256563 6.1734381673036385 0 0 0
1697 166 2 0.5564 -6.503815952245893 -19.120626897790164 10.989344925116349 0 1 0
2062 288 1 -1.1128 -6.038443005225419 18.48429812575591 7.677363551254058 0 0 0
2064 288 2 0.5564 -6.017084285635043 17.58331092916609 7.999850338468752 0 0 0
100 7 4 0.123 -5.415562785079856 15.653281777199794 11.778717527438594 0 0 0
98 7 3 -0.439 -6.4021156365983325 15.440658385625134 11.364443069299774 0 0 0
92 7 5 -0.184 -6.362378667243243 15.398113270061334 6.9933812349769235 0 0 0
97 7 5 0.296 -6.412680967668044 15.288982842594583 9.879610650653158 0 0 0
96 7 4 0.147 -4.189401485697437 15.384762537324336 9.65753793500718 0 0 0
95 7 5 -0.271 -5.197749402576846 15.41894717586423 9.144179614636215 0 0 0
93 7 5 -0.08699999999999999 -5.193504642037833 15.463559051387476 7.7383013108092 0 0 0
94 7 4 0.123 -4.242972400133623 15.458838329872766 7.250273335245505 0 0 0
1391 93 4 0.123 -2.4889041650229196 16.531483960516724 11.373309542790127 0 0 0
2549 450 2 0.5564 -2.064432983192872 16.366740048706177 7.012519384969683 0 0 0
1390 93 4 0.123 -3.052521750496494 18.13193860194258 11.379702389632778 0 0 0
1388 93 3 -0.439 -2.6619680752315014 17.36116540804863 12.055167316025946 0 0 0
2098 300 1 -1.1128 -1.8418953393363806 15.287961367182715 8.395810949624837 0 0 0
1389 93 4 0.123 -3.4551995028759075 17.255303538315168 12.801311009798088 0 0 0
1386 93 4 0.147 -0.9724613968049264 19.108848332424788 10.976720480681111 0 0 0
2397 399 2 0.5564 -1.0337271294370711 19.35864351430878 5.351094957405211 0 0 0
199 14 4 0.123 -15.737400736709061 -17.82170663058468 19.084879486900924 0 0 -1
201 14 4 0.147 -17.348257035052637 -15.913484936072434 19.267163715839118 0 0 -1
200 14 5 -0.271 -16.482914922154855 -16.0529730175418 19.945689846598132 0 0 -1
697 47 5 0.296 -17.1076740658172 -14.512878651068693 12.992243091712096 0 0 -1
695 47 5 -0.271 -18.12907128832424 -14.016593959561183 13.800975863535973 0 0 -1
2072 291 2 0.5564 -14.808224560973583 -14.85491841883291 17.835829170543448 0 0 -1
693 47 5 -0.08699999999999999 -17.935959454940285 -12.94605293338202 14.682356433229419 0 0 -1
696 47 4 0.147 -19.124632341938796 -14.335847157549232 13.539598583885775 0 0 -1
694 47 4 0.123 -18.837922448674796 -12.481387225366854 15.10371876059187 0 0 -1
1667 156 2 0.5564 -12.340193669904263 -17.552503582243496 16.094132671094115 0 1 -1
2119 307 1 -1.1128 -6.200776201008916 -15.872217641718185 19.71505392200711 0 0 0
2120 307 2 0.5564 -5.462660975615852 -15.288508161764904 19.53983694033236 0 0 0
1890 230 2 0.5564 -13.891447214079054 -13.652786348903264 -19.465191600138375 0 0 0
1991 264 2 0.5564 -11.3596426249648 -18.603726295581666 11.732531708869692 0 0 0
2613 471 2 0.5564 -9.494733930565893 -14.861077733918467 13.384375925795554 0 1 0
702 47 5 -0.271 -15.877481603912337 -13.874162649952307 13.061644356425845 0 0 -1
2071 291 1 -1.1128 -13.884672440429874 -14.765225794866005 17.600800325587667 0 0 -1
2073 291 2 0.5564 -13.683372393300948 -15.562163467397454 17.11028991127389 0 0 -1
1888 230 1 -1.1128 -13.375590521170896 -12.84654658469916 -19.47524814851345 0 0 0
701 47 4 0.123 -18.24702476475337 -15.927092565132702 11.757757643717012 0 0 -1
700 47 4 0.123 -16.613308666372376 -16.292992917441715 12.01324267277159 0 0 -1
698 47 3 -0.439 -17.26447161985689 -15.470994333512628 11.81912279164445 0 0 -1
699 47 4 0.123 -17.01824070155303 -14.993286182765384 10.932084279695113 0 0 -1
2121 307 2 0.5564 -6.50061594790831 -16.146737132676435 18.848470404359833 0 0 0
1634 145 2 0.5564 -11.640989826303715 -18.753625325676712 19.130481056467076 0 0 -1
2042 281 2 0.5564 -11.437093780690383 -11.750768756126194 14.4698949495063 0 0 -1
2043 281 2 0.5564 -11.172336464090545 -11.692681056581243 15.959332576170366 0 0 -1
1635 145 2 0.5564 -10.379218823008054 -18.968964144905506 19.938848706581922 0 0 -1
2041 281 1 -1.1128 -10.991082513463057 -12.215243040659143 15.178110587506174 0 0 -1
2474 425 2 0.5564 -12.91183952181491 -12.348272530178146 18.825073809025586 0 1 0
2475 425 2 0.5564 -13.215296177676759 -12.933085831170743 17.462061494810868 0 1 0
2473 425 1 -1.1128 -12.927166039841573 -12.128691031265921 17.893526236439612 0 1 0
1623 141 2 0.5564 -10.600676069166928 -14.17289138240335 14.901285675079691 0 0 0
1622 141 2 0.5564 -10.968627877920449 -15.523611562016141 15.477533568978227 0 0 0
1621 141 1 -1.1128 -10.300032507029046 -15.080028936357662 14.955569462603737 0 0 0
1648 150 1 -1.1128 -9.257752444682763 -16.81716043360182 17.481373088276246 0 1 -1
1649 150 2 0.5564 -9.885090888461264 -16.37116270692549 18.05037598839957 0 1 -1
1650 150 2 0.5564 -9.407542440943583 -16.438011418589493 16.61532418016761 0 1 -1
349 24 4 0.123 -6.139954561329816 -14.591932755010246 15.831916816793587 0 0 0
2226 342 2 0.5564 -8.142369194635757 -18.60504804263083 19.704811335459127 0 0 -1
2224 342 1 -1.1128 -8.671088208476952 -18.984247609350234 19.002746024084015 0 0 -1
2225 342 2 0.5564 -8.802313419675036 -18.264437731682705 18.385586846639782 0 0 -1
1791 197 2 0.5564 -9.319024797569039 -12.291531900088598 14.779328596464142 0 1 0
616 42 4 0.134 -8.22996082830913 -18.327075645044715 15.824380942372931 0 0 -1
617 42 5 -0.184 -7.2363095765804575 -18.223580715331398 15.312613416915584 0 0 -1
2275 359 1 -1.1128 -11.962729400372123 -19.811502536860946 10.700479937772924 0 1 0
2558 453 2 0.5564 -13.319592988721617 -19.401840072977137 14.022397145227295 0 0 0
2557 453 1 -1.1128 -13.673108883812679 19.863637596168978 14.524129418900381 0 -1 0
1666 156 1 -1.1128 -12.188616730497777 -16.81693097240941 15.50067736177311 0 1 -1
1668 156 2 0.5564 -12.106082710521228 -17.219220429287798 14.636048485669571 0 1 -1
2559 453 2 0.5564 -12.980014484927572 19.20374582703429 14.504259029296081 0 -1 0
629 42 5 -0.08699999999999999 -7.153956995924631 -18.13631866907598 13.88960237688608 0 0 -1
1790 197 2 0.5564 -7.996572630898907 -12.58330074838252 14.102655555219034 0 1 0
1789 197 1 -1.1128 -8.438244946540792 -11.9380604605766 14.654762767868611 0 1 0
630 42 4 0.123 -7.972279015900417 -18.5067031867228 13.281073297989126 0 0 -1
123 9 5 -0.08699999999999999 -1.8061662594991412 -18.928557038350043 18.465850964259403 0 0 0
599 40 5 -0.08699999999999999 -1.0392647902240235 -17.499535463403838 11.279729437363716 0 0 0
248 17 3 -0.439 -2.4769153567231808 4.44405561725322 19.57813075497021 0 0 -1
125 9 5 -0.271 -0.7802944184255036 -19.15956597701233 17.537568298834337 0 0 0
1986 262 2 0.5564 -7.772180202822696 -15.015099731765979 11.186258583832299 0 0 0
626 42 4 0.123 -2.707631000282642 -18.00264678020003 13.855645213473762 0 0 -1
1267 85 5 0.296 -0.9898622838749334 -8.099373891744179 -14.116935332001665 0 0 0
376 26 4 0.134 -2.0626795352836025 -13.751583203980138 18.44726217991208 0 0 0
133 9 4 0.147 -1.1328371916959794 -16.309694902033844 15.744838822368196 0 0 0
132 9 5 -0.271 -1.2595818811347919 -16.98476755828235 16.60960019476985 0 0 0
4113 971 2 0.5564 -0.2322605331396042 -8.2174981869286 8.045388915863446 0 0 0
1590 130 2 0.5564 -4.425047859550529 -13.995857161423542 11.535863955836195 0 0 0
624 42 4 0.123 -3.5699314745525625 -17.487472832694305 12.426975103484518 0 0 -1
377 26 5 -0.184 -1.0074768423212765 -13.498061301642165 18.21393096949596 0 0 0
347 24 5 -0.184 -4.680649736088984 -13.369446312217715 16.91032227871237 0 0 0
348 24 5 -0.08699999999999999 -5.947904317811219 -13.95332300972087 16.671736995628986 0 0 0
346 24 4 0.134 -3.9262135233906283 -13.827751575779226 16.33704402561449 0 0 0
619 42 4 0.123 -6.116837210120191 -17.940628132736073 17.11285462011142 0 0 -1
389 26 5 -0.08699999999999999 -0.8361581480158968 -12.488737288627885 17.222059007145823 0 0 0
360 24 4 0.123 -3.609472609395051 -12.186012790316395 18.223760405749676 0 0 0
359 24 5 -0.08699999999999999 -4.588697619844761 -12.535222038362804 18.003258842539303 0 0 0
357 24 5 -0.271 -5.748117294935384 -12.292013732169641 18.815980820183878 0 0 0
350 24 5 -0.271 -7.0631092568286356 -13.767818334137376 17.50458286462837 0 0 0
623 42 3 -0.439 -3.5200901038357304 -17.332691154801953 13.495940651888823 0 0 -1
3457 753 1 -1.1128 -0.15608805820555213 -10.065861108701414 14.19682810920522 0 0 0
358 24 4 0.147 -5.61529048453411 -11.49114406440659 19.55635989946399 0 0 0
2607 469 2 0.5564 -0.589546331610185 9.763402231594373 4.7713971210227095 0 0 0
621 42 4 0.147 -3.907715966395167 -18.02210915482615 15.96762321368443 0 0 -1
3927 909 2 0.5564 -2.741353816754483 -14.346093268607806 13.237988233486877 0 0 0
3925 909 1 -1.1128 -2.8617831783902683 -14.505177142626701 12.301814753227715 0 0 0
622 42 5 0.296 -4.828277841516628 -17.756639663194694 14.093472538970142 0 0 -1
620 42 5 -0.271 -4.900575954770471 -17.956188521645583 15.47581671715866 0 0 -1
618 42 5 -0.08699999999999999 -6.118056864096222 -18.15033158647709 16.059435258200867 0 0 -1
3926 909 2 0.5564 -1.9882881163996804 -14.731713181858147 11.982566388006253 0 0 0
127 9 5 0.296 -0.48776362198037954 -18.123050727089304 16.610304237559056 0 0 0
352 24 5 0.296 -6.953738238242171 -12.95188666097637 18.605782798258847 0 0 0
4191 997 2 0.5564 -0.42409166945072 -10.653052771304287 4.189209398977221 0 0 0
1578 126 2 0.5564 -0.2636666983429827 12.419584200066309 6.706199844344339 0 0 0
1002 67 5 -0.271 -0.5184640473617018 5.366625825381792 5.287716588113475 0 0 0
266 18 4 0.123 -0.8716130206348948 9.271090215258116 -10.272836351190612 0 0 0
2122 308 1 -1.1128 -0.40568975534866714 -14.433291191288617 14.09297799603787 0 0 0
627 42 5 -0.271 -5.942254556522358 -17.775939286478142 13.314446930396874 0 0 -1
378 26 5 -0.08699999999999999 -0.0037467230647990103 -14.336290770005224 18.653402994791346 0 0 0
355 24 4 0.123 -8.637471392327933 -11.80426588386846 18.26534046285804 0 0 0
600 40 4 0.123 -1.178909722337823 -18.39021386661985 11.881011396701329 0 0 0
1722 174 2 0.5564 -0.5502905995826649 13.364923157414749 16.550106063839305 0 0 0
206 14 4 0.123 -16.91535667756301 -13.410359564930838 19.912712376860945 0 0 -1
205 14 4 0.123 -16.513938006885382 -13.030412108492552 -18.43370933917647 0 0 0
704 47 5 -0.08699999999999999 -15.693453955513178 -12.75383771503269 13.911829715254802 0 0 -1
705 47 4 0.123 -14.78524961247462 -12.125546367980462 13.899406682517915 0 0 -1
692 47 5 -0.184 -16.672175167457212 -12.36011333154702 14.75479962856622 0 0 -1
691 47 4 0.134 -16.567698045417682 -11.364601179357877 15.218265540176219 0 0 -1
1931 244 2 0.5564 -7.197245230345114 -9.351848110425655 -19.754373130219065 0 0 1
1646 149 2 0.5564 -11.106453444274624 -7.168274884920311 19.41357096911464 0 0 0
2852 551 2 0.5564 -10.49296310608279 -6.306419913067803 13.443241631166929 0 0 0
2130 310 2 0.5564 -9.477125630390585 -8.390029678346485 13.840387130660332 0 0 0
2853 551 2 0.5564 -9.009337265250089 -6.192736695794393 13.164269405543937 0 0 0
2851 551 1 -1.1128 -9.634579726471834 -6.474148664444221 13.832184809365826 0 0 0
2539 447 1 -1.1128 -8.587357312237904 -4.078764452926483 12.788498416821126 0 0 0
703 47 4 0.147 -15.188667587051242 -14.101974902881198 12.22771571505656 0 0 -1
2039 280 2 0.5564 -11.28476798631348 -10.2299393530946 -18.778042218117104 0 0 1
2206 336 1 -1.1128 -11.957717210240938 -10.21745947338099 13.398662846622672 0 0 0
2207 336 2 0.5564 -12.083591242619814 -10.23333664295178 12.449908167551788 0 0 0
2208 336 2 0.5564 -11.149743228167585 -9.720084971789367 13.525266582360162 0 0 0
2792 531 2 0.5564 -14.534065881267319 -7.357050118555001 17.20332722401929 0 1 0
1760 187 2 0.5564 -14.488841315932898 -8.669029867533514 14.606097165462055 0 0 0
1759 187 1 -1.1128 -14.516274876757786 -9.226504814317511 13.828472107517278 0 0 0
2793 531 2 0.5564 -13.630700540861138 -6.669429577433123 16.201826239536135 0 1 0
1761 187 2 0.5564 -13.79971519927963 -9.848651890233809 13.953799819773948 0 0 0
2791 531 1 -1.1128 -14.388147053568767 -7.251440231888879 16.26322825008472 0 1 0
1587 129 2 0.5564 -13.748202812051412 -10.081679574475682 18.80016719020059 0 0 0
2129 310 2 0.5564 -9.262731387870321 -9.654333340195542 14.645040144455116 0 0 0
2038 280 1 -1.1128 -10.568756773811065 -10.444190952175125 -19.37608554975467 0 0 1
1911 237 2 0.5564 -11.575963787301799 -10.999107895621702 17.749186040867066 0 0 0
1910 237 2 0.5564 -10.456773736413966 -10.4661112539212 18.618221853813868 0 0 0
1848 216 2 0.5564 -11.191045047821754 -5.960267847131759 16.04890097891014 0 0 0
1909 237 1 -1.1128 -10.780648543674685 -10.467412235523765 17.71748035781388 0 0 0
2879 560 2 0.5564 -9.95076937903671 -7.6572868762676904 17.50263873801546 0 0 0
2040 280 2 0.5564 -9.920194793927338 -9.755430723338383 -19.230454075014283 0 0 1
2880 560 2 0.5564 -11.184344125496427 -8.466837939249427 17.16379479077729 0 0 0
2878 560 1 -1.1128 -10.875889159532822 -7.567417062503812 17.273928056742236 0 0 0
1585 129 1 -1.1128 -13.61682896675591 -9.159752308650999 19.021578233788645 0 0 0
1586 129 2 0.5564 -12.667035372455961 -9.042024743268744 19.00532548364903 0 0 0
1554 118 2 0.5564 -7.898750983559818 -7.02677256121734 17.245785475428637 0 0 0
1552 118 1 -1.1128 -8.296526988908989 -7.455739093633559 18.003409268125 0 0 0
1553 118 2 0.5564 -8.235912662523896 -8.391004220510421 17.80889217553756 0 0 0
1713 171 2 0.5564 -9.394425736889598 -10.126715260937075 16.899349519805607 0 0 0
1948 250 1 -1.1128 -7.974340861980667 -5.762716875574337 15.971921198826719 0 0 -1
1950 250 2 0.5564 -8.259570830289457 -4.861167448768378 15.823313160495658 0 0 -1
1949 250 2 0.5564 -8.411763304106278 -6.268770621296975 15.28722925704331 0 0 -1
1712 171 2 0.5564 -8.124902080961979 -10.504175446268425 16.166049704799306 0 0 0
1711 171 1 -1.1128 -8.572525932917234 -9.761618770007608 16.57160401918377 0 0 0
2540 447 2 0.5564 -7.68528226822667 -3.9696780425006946 13.089484510359469 0 0 0
351 24 4 0.147 -7.8796333725699235 -14.390374379415078 17.361033706576336 0 0 0
976 66 4 0.134 -4.2652094704555585 -5.443144857904738 18.5640629201993 0 0 -1
3021 607 2 0.5564 -0.22950216398130122 -1.417014070763081 -9.085130634290286 0 0 0
1153 77 4 0.147 -0.20192228848386815 2.4122737178918876 10.578585792386752 0 0 0
4420 1074 1 -1.1128 -0.6224493068739378 -5.907904768071351 15.070316971253378 0 0 0
3347 716 2 0.5564 -0.7011067564874699 3.3120782415732797 -1.5823754583593739 0 0 0
3881 894 2 0.5564 -0.9878341241055132 -19.277388608975055 -0.985829830811009 0 1 0
402 27 5 -0.271 -0.17407876133119538 -8.652423770738325 -3.8423245806317583 0 0 0
2128 310 1 -1.1128 -9.585018081772544 -9.340280705847336 13.800212319123226 0 0 0
390 26 4 0.123 -1.6263392710670321 -11.80087369122331 16.924616404893346 0 0 0
761 51 4 0.123 -5.2140759599790805 -10.60147922044858 12.61036941160512 0 0 0
2000 267 2 0.5564 -6.31665456388079 -3.8233775995357666 18.17783322384013 0 0 0
2001 267 2 0.5564 -6.681865327583848 -4.635897515626707 16.953771309363837 0 0 0
354 24 4 0.123 -8.17670585857466 -11.772296609118191 19.8998313820958 0 0 0
2602 468 1 -1.1128 -0.1899435828927153 18.765179975604358 -3.214198024644396 0 0 0
2960 587 2 0.5564 -3.987311143833088 -6.6637245875369135 14.605303676948347 0 0 0
1224 82 4 0.123 -0.8840573686842548 -8.269546121824588 -0.5460381374681128 0 0 0
353 24 3 -0.439 -8.267860487197042 -12.39165981782584 19.101019330622936 0 0 0
1999 267 1 -1.1128 -5.947165602241032 -4.188849613095757 17.374004946303558 0 0 0
356 24 4 0.123 -8.921230592447559 -13.211875441673827 19.43494806776174 0 0 0
2961 587 2 0.5564 -2.6295960086426837 -6.003753928221026 14.719072994248714 0 0 0
2959 587 1 -1.1128 -3.3754408740983988 -6.103759975445562 14.127510607808949 0 0 0
763 51 4 0.147 -2.6168438167834234 -10.066466419030533 14.26420679575698 0 0 0
751 51 4 0.134 -3.282751166188235 -7.145611254742338 17.33478387987711 0 0 0
765 51 4 0.123 -1.9027388039436044 -8.918532729845333 16.341363997974007 0 0 0
754 51 4 0.123 -5.788538509120086 -7.2868144055378234 16.799441764641294 0 0 0
764 51 5 -0.08699999999999999 -2.8569460716075414 -8.679196688990233 15.927874576737777 0 0 0
752 51 5 -0.184 -3.7180460241957585 -7.885645423559886 16.65676370941379 0 0 0
3172 658 1 -1.1128 -5.095602656873978 -4.819243031684515 11.240806010633348 0 0 0
3173 658 2 0.5564 -4.892489899035615 -3.895212175814696 11.095396169353945 0 0 0
753 51 5 -0.08699999999999999 -5.061011448606473 -7.89025144526123 16.30684652621059 0 0 0
3174 658 2 0.5564 -4.263480139478832 -5.272223875060945 11.104379100308094 0 0 0
762 51 5 -0.271 -3.2958998436649747 -9.444601845106305 14.835085514452256 0 0 0
755 51 5 -0.271 -5.470755192422462 -8.700205039760595 15.228773223231949 0 0 0
756 51 4 0.147 -6.495502327901936 -8.448436228146912 14.879714198513684 0 0 0
2823 541 2 0.5564 -5.610024432710747 -4.614355429946847 14.518061057281777 0 0 0
758 51 3 -0.439 -5.262924991652344 -10.739015141429952 13.703469270439234 0 0 0
757 51 5 0.296 -4.638227691512987 -9.574225843935555 14.501995246043647 0 0 0
759 51 4 0.123 -4.775653612808191 -11.588350949292593 13.976314159671514 0 0 0
760 51 4 0.123 -6.3223986240849825 -10.88899793679194 14.009673671635445 0 0 0
2355 385 2 0.5564 -3.3440740522099173 -2.2677777694098666 18.44811627375234 0 0 0
2354 385 2 0.5564 -4.521290517582679 -2.867627535149197 17.70903805543699 0 0 0
2822 541 2 0.5564 -5.69305445070635 -4.238959290745135 13.053793735439914 0 0 0
1442 97 5 -0.184 -0.2818112662303652 12.138460835705507 -5.88180115655534 0 -1 0
2821 541 1 -1.1128 -6.036864425081264 -4.004889417905955 13.915906149404286 0 0 0
4421 1074 2 0.5564 -0.35795630002501483 -5.086818314474305 14.655476899509566 0 0 0
796 54 4 0.134 -16.057781877466986 3.7391974342993892 17.93983909769897 0 0 0
810 54 4 0.123 -17.617565007588933 1.6324073428340782 18.117742695099565 0 0 0
2243 348 2 0.5564 -11.750564353611773 -0.5418809361846655 12.128733560149543 0 0 0
2541 447 2 0.5564 -9.013196523441723 -3.248136176254371 13.000511296066742 0 0 0
1846 216 1 -1.1128 -11.885904733919846 -5.340457977004949 15.827005550152982 0 0 0
1726 176 1 -1.1128 -11.084558201357387 -2.7988993442197274 14.8296355469505 0 0 0
1727 176 2 0.5564 -11.474994629962403 -2.2549367300256966 14.145606371306993 0 0 0
2004 268 2 0.5564 -8.855852767411628 -5.538870251180114 18.295465429649212 0 0 -1
2002 268 1 -1.1128 -9.419535125620962 -4.891426489096325 18.718916171646907 0 0 -1
1847 216 2 0.5564 -12.033789033382684 -4.846837093312477 16.63366564286665 0 0 0
2149 317 1 -1.1128 -8.915437324135345 -2.999306135497859 16.20270377558324 0 0 0
798 54 5 -0.08699999999999999 -14.477775887879513 2.6069508707036606 17.111687970013133 0 0 0
809 54 5 -0.08699999999999999 -16.693976623771967 1.642136834493609 17.531291171548816 0 0 0
799 54 4 0.123 -13.863273619993612 3.523120672366844 17.042041790288877 0 0 0
797 54 5 -0.184 -15.820404499057407 2.745700198702909 17.528956939991314 0 0 0
2703 501 2 0.5564 -11.135577277221614 3.9108318833261757 19.65662813973485 0 0 0
2701 501 1 -1.1128 -10.302040774876629 3.4770176180034413 19.474271592471343 0 0 0
1976 259 2 0.5564 -8.312421169045733 -0.730718675745458 12.00132445385276 0 0 0
807 54 5 -0.271 -16.21581268439426 0.4698484633425855 17.018919543372853 0 0 0
2154 318 2 0.5564 -14.533432842043469 0.05045535102428491 12.14621032190141 0 0 0
2153 318 2 0.5564 -14.237471350452742 0.06642558956579969 13.630813581713232 0 0 0
2152 318 1 -1.1128 -14.638312253529385 0.5850501383447972 12.933255746287807 0 0 0
801 54 4 0.147 -12.966257792627559 1.2851545300691158 16.560189243692406 0 0 0
800 54 5 -0.271 -14.059309633532651 1.4328550621363485 16.565707889350296 0 0 0
1728 176 2 0.5564 -11.401282220741265 -3.6827664774144715 14.64336524801968 0 0 0
808 54 4 0.147 -16.682366237327525 -0.4862797372493022 17.27510700180796 0 0 0
805 54 4 0.123 -13.648875057468834 -0.9239360107875321 15.472952637933524 0 0 0
806 54 4 0.123 -14.124151958807317 -1.6449047804172905 17.048529968166733 0 0 0
804 54 4 0.123 -15.176164150694968 -1.5830940560403401 15.547340025165312 0 0 0
803 54 3 -0.439 -14.441633710838483 -1.0670358049463722 16.162874848138163 0 0 0
1975 259 1 -1.1128 -8.624139679040356 -1.2253288452997657 12.759232225707873 0 0 0
1977 259 2 0.5564 -9.546912216280088 -0.9841484056694733 12.840192975983127 0 0 0
802 54 5 0.296 -14.931253307888097 0.3436921946942488 16.52999234963603 0 0 0
2727 509 2 0.5564 -12.46368127635107 2.5451398552831286 13.771532143220675 0 0 0
2151 317 2 0.5564 -9.682503289181513 -2.8259380221626653 15.657006818750034 0 0 0
2242 348 1 -1.1128 -11.636919714278685 -0.864786102148575 13.022628957499148 0 0 0
2150 317 2 0.5564 -8.484464496516685 -2.1488872338443583 16.288038116056274 0 0 0
2725 509 1 -1.1128 -13.180727429640108 3.0353526079929534 13.369328057225985 0 0 0
2726 509 2 0.5564 -13.826790006994155 2.3683610636126566 13.13704100282905 0 0 0
2244 348 2 0.5564 -11.426502943521472 -0.08405122350992215 13.534888359250433 0 0 0
2214 338 2 0.5564 -9.454050675156113 1.8736708584151687 16.788868643149538 0 0 0
2212 338 1 -1.1128 -10.197395128617144 2.4766957114555006 16.794515493932973 0 0 0
2441 414 2 0.5564 -11.219618183883444 1.8363724930511949 15.321767608190466 0 0 -1
2440 414 1 -1.1128 -11.217850112052586 1.5147205810381343 14.420230848300196 0 0 -1
2442 414 2 0.5564 -10.455306715745197 1.931003140626497 14.018399797993986 0 0 -1
2213 338 2 0.5564 -10.305339184376514 2.7159530728245014 17.715023944597135 0 0 0
2702 501 2 0.5564 -9.790801773651843 3.5931458912125374 -19.72486591530526 0 0 1
1807 203 1 -1.1128 -7.058391069371189 -1.0003668983488523 15.047442620755158 0 0 0
1809 203 2 0.5564 -7.619465813780283 -0.9063020368403468 14.277651306652547 0 0 0
1879 227 1 -1.1128 -9.455809528743364 2.7747238438836166 12.766487506756063 0 0 0
4246 1016 1 -1.1128 -1.5298858155323332 -1.2946994060287462 15.392462043207985 0 0 0
4248 1016 2 0.5564 -2.4869038910584793 -1.291505536536921 15.374076642856991 0 0 0
850 57 4 0.123 -1.1538343069325867 -14.555931960627467 -10.809029302180482 0 0 0
769 52 4 0.123 -6.852490761184689 -1.653600278655057 10.559066450233606 0 0 0
767 52 5 -0.184 -5.140473494526433 -1.6304155716745143 11.743914645554026 0 0 0
780 52 4 0.123 -3.281046588658784 -2.0257300063819885 12.84330582084123 0 0 0
779 52 5 -0.08699999999999999 -3.725043474790469 -1.7314425610947142 11.845126076068821 0 0 0
250 17 4 0.123 -3.0609463677755424 3.672243889478576 19.992451591658025 0 0 -1
3503 768 2 0.5564 -1.0464204626813616 17.423902248643756 -15.972101652307291 0 0 0
2003 268 2 0.5564 -9.617574448730869 -4.257941934750102 18.02919916476644 0 0 -1
2353 385 1 -1.1128 -4.080265187572121 -2.035876913177454 17.882009891433647 0 0 0
2824 542 1 -1.1128 -6.678455923083905 -2.3637168303744986 19.459107925015438 0 0 0
2825 542 2 0.5564 -7.288482505137831 -1.628813582600808 19.395731104700477 0 0 0
766 52 4 0.134 -5.787127179765109 -1.6253149840775074 12.612047508658303 0 0 0
2826 542 2 0.5564 -5.820198082380954 -1.9792586209401224 19.28073421080455 0 0 0
2453 418 2 0.5564 -7.143893285540335 1.6647321930110752 17.343551320543995 0 0 0
2452 418 1 -1.1128 -7.8309498749745865 1.2925233094362263 16.79069907773605 0 0 0
2454 418 2 0.5564 -7.429512230644391 0.517230615445633 16.398269846368635 0 0 0
2784 528 2 0.5564 -3.103742863887618 1.2516708237145824 18.7954111399396 0 0 0
2922 574 2 0.5564 -1.4981187598813883 17.26535794071703 1.2213796336708087 0 0 0
2838 546 2 0.5564 -4.401401084439433 -0.3187124054362466 15.151141356430688 0 0 -1
2596 466 1 -1.1128 -4.036753305542268 -0.10693413015899364 -17.901849691996873 0 0 0
2783 528 2 0.5564 -3.2469753782779867 0.5750733435122967 -19.85789092005183 0 0 1
2782 528 1 -1.1128 -2.5988421625239355 0.8094322809258037 19.47785684987124 0 0 0
3381 727 2 0.5564 -2.94254289468964 2.6877761652028167 13.56264242317189 0 0 -1
1677 159 2 0.5564 -7.760135911800537 1.2301646768300702 19.342184387630045 0 0 0
1675 159 1 -1.1128 -7.768158655245317 0.40928392203363306 19.834446745575047 0 0 0
1676 159 2 0.5564 -7.668132628051944 0.6763989526809155 -19.251837712639418 0 0 1
2210 337 2 0.5564 -4.4814877596395215 1.757047206535778 16.89169293966369 0 0 -1
4162 988 1 -1.1128 -1.0106847203627303 1.4361194805387845 15.00201812614012 0 0 -1
4163 988 2 0.5564 -0.30493941382904055 2.001820603574101 14.688748841689392 0 0 -1
2209 337 1 -1.1128 -4.126710213981254 2.24070819900172 17.637639840965164 0 0 -1
3041 614 2 0.5564 -5.9286733154830555 1.4214139926396547 15.202895199076915 0 0 -1
2836 546 1 -1.1128 -4.147544497441329 -1.240698463044565 15.109543195902672 0 0 -1
2837 546 2 0.5564 -4.22099203611926 -1.550797661052387 16.012137098115463 0 0 -1
3042 614 2 0.5564 -4.646467157179594 2.020761618082572 14.665656913309196 0 0 -1
3040 614 1 -1.1128 -4.980930189214284 1.288586239577954 15.183619805415743 0 0 -1
1808 203 2 0.5564 -6.4005982877844465 -1.6453636429465643 14.787597262922858 0 0 0
3380 727 2 0.5564 -3.598126115535543 3.8292396853435706 14.3104168641733 0 0 -1
3379 727 1 -1.1128 -3.789809125217403 3.107531455633164 13.711562451861896 0 0 -1
4164 988 2 0.5564 -0.8691490976562246 1.376682116152973 15.946828525094327 0 0 -1
64 5 4 0.123 -20.5954269285063 5.984845603754104 11.307549931861791 0 0 0
61 5 4 0.134 -20.600628366666967 3.8715163859014465 12.188253881905762 0 0 0
2467 423 1 -1.1128 -13.433187630200594 7.396983459589216 19.765175967312096 0 0 -1
2469 423 2 0.5564 -14.201273073088567 7.620990991244575 19.23972645004435 0 0 -1
1815 205 2 0.5564 -12.7995087545196 6.823647539068274 16.9482911532282 0 0 -1
311 21 4 0.123 -9.986249391704744 10.049862976746986 10.533403486363131 0 0 0
1880 227 2 0.5564 -9.162380219930544 3.685757290400811 12.754276211207808 0 0 0
3866 889 2 0.5564 -8.724653599733594 6.384220328562969 12.896069500731976 0 0 0
308 21 3 -0.439 -10.920387044049745 10.588544654389798 10.734128567555702 0 0 0
310 21 4 0.123 -11.707570610321634 9.906532728294767 10.935074230912024 0 0 0
2086 296 1 -1.1128 -12.111665366479592 10.458282727747298 18.096710393296224 0 0 0
2087 296 2 0.5564 -11.380156514311668 9.846868147854224 18.182143335258953 0 0 0
2230 344 1 -1.1128 -15.917176508239185 8.037834352929769 18.35618500214923 0 0 -1
2088 296 2 0.5564 -12.333260129940399 10.69472592933174 18.997389113313364 0 0 0
2482 428 1 -1.1128 -12.979859312467363 11.930294054844241 -19.697575417289155 0 0 0
1863 221 2 0.5564 -13.238759625358952 4.670804496393342 14.028106066329448 0 0 0
1861 221 1 -1.1128 -13.206453083863913 5.567575523347245 14.361257466716802 0 0 0
1513 105 1 -1.1128 -9.206474768114674 4.863402164512205 15.549591115880238 0 0 0
1514 105 2 0.5564 -9.725782481002769 4.127099727248329 15.872716523716791 0 0 0
1515 105 2 0.5564 -8.348597565419318 4.485439385336647 15.356141819044078 0 0 0
2247 349 2 0.5564 -12.217925637552879 7.1294069573696754 11.85930998595706 0 0 0
2232 344 2 0.5564 -16.03938081957582 8.98249101424993 18.450639939388513 0 0 -1
1814 205 2 0.5564 -12.683054509256426 5.841299820510492 18.094295745731014 0 0 -1
2546 449 2 0.5564 -12.77477443279944 7.026922987324659 13.618692620536022 0 0 -1
2231 344 2 0.5564 -16.716944654311774 7.734132777677856 17.92680394253858 0 0 -1
1862 221 2 0.5564 -13.18567869464911 5.469346658790333 15.31317728540511 0 0 0
1813 205 1 -1.1128 -12.85869769678496 5.890832913775347 17.154653382828368 0 0 -1
2547 449 2 0.5564 -11.550159448731467 7.909704864455568 13.732312445788974 0 0 -1
2545 449 1 -1.1128 -12.494946598420267 7.941571535851024 13.582000796776866 0 0 -1
2571 457 2 0.5564 -12.517255422026386 10.079584024139985 14.62854822932028 0 0 -1
2570 457 2 0.5564 -12.183615989473529 10.494709860387495 16.045675761453467 0 0 -1
2569 457 1 -1.1128 -11.987782525528482 10.698651209461232 15.131187364410719 0 0 -1
1632 144 2 0.5564 -9.382778603848244 8.073279657255695 14.550960445152965 0 0 0
2632 478 1 -1.1128 -9.54416630819747 6.934561582398395 -19.9497158972924 0 0 0
2634 478 2 0.5564 -9.59150730993547 7.636632185858844 -19.300803365868905 0 0 0
1994 265 2 0.5564 -10.26292141950782 10.079630815016552 15.222135559666018 0 0 0
2451 417 2 0.5564 -10.009556619230064 12.58903237779527 13.432584988084002 0 0 0
2450 417 2 0.5564 -11.335488854745252 11.908178658930433 13.697607874749476 0 0 0
1993 265 1 -1.1128 -9.45599670651905 9.627418802968783 15.46832372911166 0 0 0
2633 478 2 0.5564 -9.944944911046514 7.306511970161916 19.264624344883035 0 0 -1
1630 144 1 -1.1128 -9.661968364555564 7.40273256044371 13.927541306104372 0 0 0
1631 144 2 0.5564 -9.985526764817632 6.686668161393978 14.474161395462938 0 0 0
1904 235 2 0.5564 -8.42965127668153 5.8921221723768555 19.05000346726108 0 0 -1
1905 235 2 0.5564 -8.506697176457376 5.234391100960975 17.68862589369508 0 0 -1
2484 428 2 0.5564 -12.893722967760127 12.062300482086709 -18.75344265899329 0 0 0
4268 1023 2 0.5564 -1.4542250176163696 5.486186785061963 12.722412397581607 0 0 0
2763 521 2 0.5564 -1.4981744229357328 13.906002695905842 3.612064944109088 0 0 0
2283 361 2 0.5564 -5.898219068296319 8.861030449014178 13.420146183197716 0 0 0
2281 361 1 -1.1128 -5.603765842104691 8.37285559627362 12.651241493606717 0 0 0
2076 292 2 0.5564 -3.034523068814694 3.510929871696313 16.628084985632306 0 0 0
2074 292 1 -1.1128 -2.6343400043852294 4.213293751860333 16.115473822717806 0 0 0
2075 292 2 0.5564 -1.6922931488490716 4.082144410531602 16.22308144639299 0 0 0
2697 499 2 0.5564 -6.257261672887864 3.1824801866827497 19.618211522375784 0 0 0
2211 337 2 0.5564 -4.8975630728247666 2.5827219171008884 18.09045805056355 0 0 -1
1995 265 2 0.5564 -8.756016463727317 10.223638340770522 15.202275342472277 0 0 0
2563 455 1 -1.1128 -9.634616249153234 9.102784435755376 18.163786820678315 0 0 -1
2565 455 2 0.5564 -9.3968122422138 9.186251307370604 17.24036148438544 0 0 -1
1903 235 1 -1.1128 -7.8858095220024405 5.499183400431182 18.367312406351612 0 0 -1
3213 671 2 0.5564 -1.8038717334646721 7.823425895721135 17.569147489592403 0 0 -1
2360 387 2 0.5564 -3.4474990176833726 11.404830980535715 16.184380257238846 0 0 0
2361 387 2 0.5564 -2.7445524225035043 10.130008145794598 16.59981711297455 0 0 0
2696 499 2 0.5564 -6.953513771741186 4.123097420254675 18.6578121556048 0 0 0
2695 499 1 -1.1128 -6.384073747491907 3.3541863246199664 18.685115918240626 0 0 0
2564 455 2 0.5564 -9.127980677790708 9.784820980427085 18.604670489468266 0 0 -1
2954 585 2 0.5564 -6.426295540785614 11.084350339942937 15.587562905493098 0 0 0
3211 671 1 -1.1128 -1.2520163906258708 8.29138838000777 16.94249082031004 0 0 -1
3314 705 2 0.5564 -1.721976542576796 8.60187446382883 15.347970724564792 0 0 -1
1866 222 2 0.5564 -7.056408115137875 10.844161573099298 19.09556995603224 0 0 -1
3315 705 2 0.5564 -1.450366280700842 9.210834264114148 13.988819890807953 0 0 -1
1864 222 1 -1.1128 -7.949908315518172 10.785911515362995 19.43394277030224 0 0 -1
3313 705 1 -1.1128 -2.1622402265923295 8.966761095327875 14.580339603806898 0 0 -1
2955 585 2 0.5564 -5.306298618685865 10.915770100072361 14.583031811518039 0 0 0
3424 742 1 -1.1128 -3.3009973411327542 6.898821511902741 13.290465818402255 0 0 -1
3222 674 2 0.5564 -4.722526190358705 4.62659343986642 15.804547291795966 0 0 0
3221 674 2 0.5564 -5.799523877393372 5.485176474552932 16.432883418374992 0 0 0
3426 742 2 0.5564 -4.220332219580597 7.152275619955335 13.207907215281654 0 0 -1
3425 742 2 0.5564 -2.8972088168075327 7.616205139389603 13.778878954073024 0 0 -1
3220 674 1 -1.1128 -5.6222770226252425 4.926806247520387 15.675890641488415 0 0 0
246 17 4 0.147 -4.915765107077425 5.481192103822617 -19.95418730681421 0 0 0
2010 270 2 0.5564 -4.140723452704878 11.62032884982499 13.335750396831202 0 0 -1
2009 270 2 0.5564 -3.0523888678589604 10.781047748112 13.970597036880907 0 0 -1
2008 270 1 -1.1128 -3.6408128085009483 11.515537049001654 14.145281057034602 0 0 -1
245 17 5 -0.271 -4.150448069807355 6.257457453056801 -19.85004629587829 0 0 0
1753 185 1 -1.1128 -5.897656629997948 11.238172157865165 17.581284559578204 0 0 0
1754 185 2 0.5564 -5.865238561650439 12.186886886673385 17.70425316887344 0 0 0
244 17 4 0.123 -5.42150537634158 7.963939142516698 -19.994665248484008 0 0 0
241 17 4 0.134 -3.600784499849983 9.594871496384426 19.963183799489666 0 0 -1
242 17 5 -0.184 -3.403662725065365 8.569802758680584 -19.809076027935305 0 0 0
243 17 5 -0.08699999999999999 -4.406201663944969 7.629122787145024 -19.90975405030868 0 0 0
1755 185 2 0.5564 -4.980744198592971 10.963540679759705 17.590284130061242 0 0 0
2585 462 2 0.5564 -11.892703762238392 -19.884059832518282 16.943512304641125 0 1 -1
2584 462 1 -1.1128 -12.628852632587643 -19.33311216954573 17.20954479867192 0 1 -1
2449 417 1 -1.1128 -10.955128707881848 12.73332248675466 13.396450730568251 0 0 0
2672 491 2 0.5564 -14.321349398730518 15.86877530198487 19.717381438750504 0 0 -1
2903 568 2 0.5564 -15.690277783913256 13.00637077399817 16.822259208269173 0 0 -1
2902 568 1 -1.1128 -15.370845922578425 13.80500702288693 17.242229583798245 0 0 -1
2904 568 2 0.5564 -14.588139644411974 14.04132816126643 16.744479675220248 0 0 -1
2483 428 2 0.5564 -13.495903137160996 12.67825530170223 -19.998381961793857 0 0 0
309 21 4 0.123 -10.741180804501466 11.068489998168555 11.708867732222872 0 0 0
1566 122 2 0.5564 -8.919508242592503 15.785250872710066 19.132661551844787 0 -1 0
1805 202 2 0.5564 -7.695147065581826 11.922588600568396 13.821564265864128 0 0 0
2673 491 2 0.5564 -14.908037365153472 14.749608831189365 18.883619815895802 0 0 -1
2586 462 2 0.5564 -13.405593499521771 -19.843935187772466 16.981585864688554 0 1 -1
2671 491 1 -1.1128 -14.32601639181776 14.916046201893675 19.625092626749204 0 0 -1
2048 283 2 0.5564 -10.979793335286367 11.912089434225447 17.376014634926776 0 0 0
2047 283 1 -1.1128 -10.567517142047588 12.616132441627743 16.8754313932294 0 0 0
2049 283 2 0.5564 -10.661689062376716 12.347723173779544 15.961472994908368 0 0 0
1804 202 1 -1.1128 -8.441118248471033 12.471368087981853 13.579490452175715 0 0 0
2627 476 2 0.5564 -7.661574415356682 18.376363147588545 17.427896909760364 0 0 0
2854 552 1 -1.1128 -7.424339202327119 15.237512422475476 15.126429414376858 0 0 0
2095 299 1 -1.1128 -9.759413262837494 16.77673263915924 14.350010512795878 0 0 0
1512 104 2 0.5564 -11.097316299921921 16.0224693727702 13.398942329912568 0 0 0
2856 552 2 0.5564 -8.368329117781478 15.339707792635119 15.005305577151919 0 0 0
1565 122 2 0.5564 -10.333348403750417 16.31331441680484 19.251404651838374 0 -1 0
2276 359 2 0.5564 -11.784214405747694 19.399157390678756 10.189298509244535 0 0 0
1806 202 2 0.5564 -8.059905156961745 13.332441067983474 13.407846440824173 0 0 0
2855 552 2 0.5564 -7.208700545941464 15.832616362121525 15.84447058212062 0 0 0
1511 104 2 0.5564 -11.528197993563257 14.672215395255106 12.866917584761314 0 0 0
2096 299 2 0.5564 -10.133255205580358 17.467756876435512 14.896782406185393 0 0 0
1510 104 1 -1.1128 -11.815058881915881 15.58218458215059 12.943720725078832 0 0 0
2191 331 1 -1.1128 -12.724540201808086 14.30465227762783 15.993787936646665 0 0 0
2192 331 2 0.5564 -12.612010313877319 14.389466465773356 15.047016888948702 0 0 0
2679 493 2 0.5564 -12.797041423333226 15.9466709111449 17.691267353965433 0 0 0
2677 493 1 -1.1128 -12.294347232473275 16.66907694711795 18.06764469791113 0 0 0
2678 493 2 0.5564 -12.871377183266757 17.0410924905667 18.73463248037494 0 0 0
2193 331 2 0.5564 -11.93636879431759 13.848902846240545 16.289270752964633 0 0 0
1853 218 2 0.5564 -11.276501916082811 18.02530526479295 16.956463270475613 0 0 0
1852 218 1 -1.1128 -10.911024768087623 18.716895291494044 16.404773555506928 0 0 0
2097 299 2 0.5564 -9.2495906598118 17.243847440441417 13.688106811799907 0 0 0
1854 218 2 0.5564 -9.977276746281508 18.72350756311823 16.615255631839158 0 0 0
1564 122 1 -1.1128 -9.422529199703645 16.539495176552013 19.439772582192067 0 -1 0
2626 476 1 -1.1128 -8.060361081572953 19.148659325687447 17.026948567128663 0 0 0
2628 476 2 0.5564 -8.190309509218 19.756790281112597 17.754631187443973 0 0 0
2890 564 1 -1.1128 -6.243979556907837 18.75484943908072 14.598572722956597 0 0 0
2892 564 2 0.5564 -5.533436273973697 19.391725504695376 14.522750865350549 0 0 0
2891 564 2 0.5564 -6.933041255931859 19.219464862289406 15.073502455233209 0 0 0
2372 391 2 0.5564 -5.804063241943924 14.64709241859633 15.09302189015117 0 0 0
561 38 4 0.147 -4.604835649169451 17.36479720814536 -19.69209989300649 0 0 0
2334 378 2 0.5564 -4.767224094746904 14.20635574494002 18.8716787240886 0 0 0
1721 174 2 0.5564 -0.8633407674234912 11.90985807729477 16.827018273738826 0 0 0
562 38 5 0.296 -3.8358200547566064 18.355099931088215 18.555084094212646 0 0 -1
2535 445 2 0.5564 -2.4192982262561094 11.947753492606575 18.67577469489685 0 0 -1
1720 174 1 -1.1128 -0.2938807716961102 12.627624784590644 17.104070804279978 0 0 0
557 38 5 -0.184 -2.1491799181586586 16.14136232825303 18.40635320940897 0 0 -1
4101 967 2 0.5564 -2.4221954691181113 12.72826730109255 14.549353703140792 0 0 0
570 38 4 0.123 -1.092638296990636 17.127475179238285 16.79886357770488 0 0 -1
625 42 4 0.123 -3.2422022399004904 -16.33972596105522 13.734185173511502 0 0 -1
565 38 4 0.123 -4.840606237699581 -19.79314065112128 18.983655619622045 0 1 -1
564 38 4 0.123 -5.964307331817652 18.894884309214447 18.69463076197162 0 0 -1
569 38 5 -0.08699999999999999 -1.9682733272861985 17.144351791721743 17.48578105125532 0 0 -1
2534 445 2 0.5564 -1.7870576919184555 12.189825743070216 -19.97013237255284 0 0 0
2953 585 1 -1.1128 -6.2587554107169705 10.874512937005122 14.668797209689583 0 0 0
2359 387 1 -1.1128 -3.1264004603303874 10.933497796785248 16.953127580620848 0 0 0
1865 222 2 0.5564 -8.138543525823232 11.663693181672599 19.765828016094137 0 0 -1
2262 354 2 0.5564 -5.418148376026484 16.923715646834374 17.262665171974223 0 0 0
566 38 4 0.123 -5.045242309500185 19.633144571675466 17.38343132846946 0 0 -1
563 38 3 -0.439 -4.963389492522986 19.293839713679304 18.382030807388865 0 0 -1
1265 85 5 -0.271 -0.5346627051740878 -7.871396267431391 -12.820452414424706 0 0 0
1392 93 5 -0.271 -0.8983373830699475 17.456188118780368 13.938474770627387 0 0 0
2261 354 2 0.5564 -5.922961871049307 17.391689640360923 15.914311053491433 0 0 0
568 38 4 0.147 -2.6323772379507338 19.10728017008462 16.976135576511002 0 0 -1
2373 391 2 0.5564 -4.7425392707816805 14.09916846890143 16.022990307315542 0 0 0
2333 378 2 0.5564 -5.939927109958292 14.616259243228258 18.006437753294072 0 0 0
2371 391 1 -1.1128 -4.912725470400535 14.298291356374497 15.102328381098179 0 0 0
1393 93 4 0.147 -1.4315682741515843 16.63532802346537 14.353696897813665 0 0 0
2919 573 2 0.5564 -8.788907345396554 13.924464164530766 17.542720895349678 0 0 0
2260 354 1 -1.1128 -6.180721027591841 16.88638847201163 16.685325178724433 0 0 0
560 38 5 -0.271 -3.916084773986033 17.288593167984036 19.48934914399828 0 0 -1
4100 967 2 0.5564 -2.739939909600385 14.16511287449277 14.904892846162555 0 0 0
1868 223 2 0.5564 -0.3363779931160936 -15.548268315336236 -7.355656774038464 0 0 0
567 38 5 -0.271 -2.861937841081543 18.20344651030024 17.548326641834972 0 0 -1
1385 93 5 -0.271 -0.638937369254467 18.834892117253997 11.912210554625377 0 0 0
1387 93 5 0.296 -1.38029958654009 17.921277485961905 12.705190562288086 0 0 0
2917 573 1 -1.1128 -8.12803264134258 14.293470782443514 18.128647987242147 0 0 0
4099 967 1 -1.1128 -2.0122553622474038 13.548576640837267 14.823713856600817 0 0 0
2332 378 1 -1.1128 -5.220570072035667 13.986872326850712 18.05771540585251 0 0 0
126 9 4 0.147 -0.34480903476846025 19.903026634904023 17.31123228879684 0 -1 0
1441 97 4 0.134 -0.2385632233749171 11.860449305326794 -4.811161881004303 0 -1 0
4220 1007 2 0.5564 -0.4154759136411259 1.8354541435503884 -7.194418232351127 0 0 0
2166 322 2 0.5564 -0.5848592112329557 -9.460014516896326 -7.752397459507014 0 0 0
3204 668 2 0.5564 -0.0992201155571014 -14.928167966249053 2.9175420041687268 0 0 0
3714 838 2 0.5564 -0.3311165545080536 -17.07388706782859 -13.451063389200918 0 0 0
4252 1018 1 -1.1128 -0.17075370401205495 -4.382873875774953 7.33926843033983 0 0 0
1886 229 2 0.5564 -0.5999328598052562 -17.58109622260492 1.4820840514933975 0 0 0
859 58 4 0.123 -0.036281066200949376 18.16556992728861 -9.77381948093085 0 -1 0
3483 761 2 0.5564 -0.10054230198089024 6.346297254749128 2.1853382828188366 0 0 0
3504 768 2 0.5564 -0.16871116234881392 16.928376697197713 -17.10169271057201 0 0 0
4344 1048 2 0.5564 -0.004072989646140244 8.643232879834127 1.4951836364649678 0 -1 0
3068 623 2 0.5564 -0.2939181993007062 -8.745711732236359 12.896712164006166 0 0 0
580 39 4 0.123 -0.009748194317822027 10.050025056087987 -18.017526753776632 0 0 0
975 65 4 0.123 -0.017964124251596866 -4.34624987747751 17.10569706191491 0 0 -1
1802 201 2 0.5564 -0.17520279158301405 11.083427276112644 -1.621771611172528 0 0 0
3502 768 1 -1.1128 -0.13020263653280043 17.31056056679955 -16.224946210830776 0 0 0
1718 173 2 0.5564 -0.5662559956116117 -19.275314708206402 -18.770872217210187 0 1 1
2124 308 2 0.5564 -0.18979090579539437 -14.3400794235152 15.0208416453142 0 0 0
3303 701 2 0.5564 -0.048060119655080724 7.94393018344285 9.562277608768733 0 0 0
156 11 4 0.147 -0.00852351477840833 6.442418625610623 -16.126977404407757 0 0 0
588 40 5 -0.08699999999999999 -0.05242175404466169 -15.37781208875291 10.861611545601752 0 0 0
3090 630 2 0.5564 3.0957092131833943 -17.369746188149424 -15.548523919737917 0 0 0
3089 630 2 0.5564 2.255201793069093 -16.635970949261164 -14.52528584664795 0 0 0
3088 630 1 -1.1128 2.9994159297547025 -16.521176841049705 -15.11621685836096 0 0 0
3238 680 1 -1.1128 5.155498052584183 -14.63949851827412 -14.728570728089117 0 0 0
3239 680 2 0.5564 4.466377659342473 -15.275005878503212 -14.922156055790603 0 0 0
3240 680 2 0.5564 4.901427244715189 -14.258580132732385 -13.887986985599406 0 0 0
3361 721 1 -1.1128 5.57214484963612 -14.273329887588067 -10.890647268135293 0 0 0
3363 721 2 0.5564 5.282117784675225 -13.367194064099204 -10.785605443410349 0 0 0
3362 721 2 0.5564 5.278591661156445 -14.713283145602443 -10.092838113467518 0 0 0
3945 915 2 0.5564 1.3980822160629356 -14.902861631538238 -10.861249579051528 0 0 0
3712 838 1 -1.1128 0.6111713310194522 -17.00221914008271 -13.298783916576221 0 0 0
1701 167 2 0.5564 0.7468770404749565 19.638269541403393 -14.390086131577927 0 -1 0
4304 1035 2 0.5564 5.136606366663633 -14.604516631728641 -19.17016470464017 0 0 0
3321 707 2 0.5564 4.644595106688568 -18.73054707206142 -19.985802069129715 0 0 0
3320 707 2 0.5564 4.861257824198008 19.771186103105396 -19.973598453585822 0 -1 0
3943 915 1 -1.1128 1.5941491941863748 -15.825383737800454 -11.024780916010313 0 0 0
4305 1035 2 0.5564 5.182234456952956 -14.168024030823775 -17.721272897332785 0 0 0
2525 442 2 0.5564 3.978446993127021 -16.68926102710103 -18.630287981720656 0 0 0
4303 1035 1 -1.1128 5.103635882023799 -14.944212705827873 -18.275876521370026 0 0 0
2526 442 2 0.5564 3.556107836711608 -18.134443906002048 -18.472266352724056 0 0 0
2524 442 1 -1.1128 3.768840937352231 -17.475986757889547 -19.13363644743329 0 0 0
4339 1047 1 -1.1128 3.081712751456178 -19.094996059045126 -16.66137230963058 0 1 1
3265 689 1 -1.1128 6.443438988438612 -11.82308654015507 -12.842400493442748 0 0 0
3395 732 2 0.5564 4.605935344192305 -16.9278929262861 -11.91599963714363 0 1 0
3792 864 2 0.5564 6.251828789725351 -16.665488204219905 -14.486235251473762 0 0 0
264 18 4 0.123 0.05066308872766141 10.601939343101964 -9.634987426940286 0 0 0
3944 915 2 0.5564 1.8366941236615264 -16.1748456301957 -10.16729611918602 0 0 0
3790 864 1 -1.1128 6.4031740406617725 -17.19338349450391 -15.27023333562361 0 0 0
2582 461 2 0.5564 7.685787600001799 -18.650818887368157 -13.689521314226308 0 0 0
1422 95 5 -0.271 2.6632149845362796 -12.666413443181392 -16.343189102366708 0 0 0
1415 95 5 -0.271 2.9071100490846127 -12.123185050074841 -18.70167691976684 0 0 0
1417 95 5 0.296 2.3546972373241313 -12.947346107381968 -17.715035500091588 0 0 0
1416 95 4 0.147 2.574438674570874 -12.110687285813158 -19.71582628562144 0 0 0
1423 95 4 0.147 2.1184852974508392 -13.206765907479495 -15.496862142512557 0 0 0
1418 95 3 -0.439 1.4988538771160844 -14.070559510671165 -18.118189650134756 0 0 0
4341 1047 2 0.5564 3.7900113231343266 -19.607123850099057 -16.271154461055964 0 1 1
3713 838 2 0.5564 0.6844940523691366 -16.596459977215424 -12.434946478091033 0 0 0
3954 918 2 0.5564 4.579290279403515 -19.512877966046787 -12.210089626659379 0 0 0
2583 461 2 0.5564 7.005923692447092 -18.157557410145763 -12.430008165186962 0 0 0
2581 461 1 -1.1128 7.646197940511945 -18.79595644227751 -12.74421735014982 0 0 0
3003 601 2 0.5564 8.51774735571587 -14.467515381364489 -12.288907489059763 0 0 0
1420 95 4 0.123 1.363079534715321 -14.6787505676522 -17.227026932044666 0 0 0
3002 601 2 0.5564 7.496349833461977 -15.177733360943968 -11.426218450130989 0 0 0
3267 689 2 0.5564 6.025588703589216 -11.671733074449635 -11.994623942397908 0 0 0
3960 920 2 0.5564 0.6063194160995079 -4.703048858213274 -10.46143403801456 0 0 0
4110 970 2 0.5564 6.886224914759527 -16.678622921298107 -19.884723913674556 0 1 0
4109 970 2 0.5564 6.500878367075856 -16.069470907598127 -18.553432423275535 0 1 0
3319 707 1 -1.1128 5.248555762229493 -19.410489623316384 19.715632281597234 0 0 -1
4108 970 1 -1.1128 7.178406597632008 -16.596592505270074 -18.976906355988422 0 1 0
1419 95 4 0.123 1.9165896204896422 -14.625623331421188 -18.89909646051754 0 0 0
3000 600 2 0.5564 6.841352482545966 -14.677686018962351 -15.724322596946351 0 0 1
3941 914 2 0.5564 10.144536056994907 -13.23634801866085 -15.280707949622013 0 1 1
1751 184 2 0.5564 5.896426985168925 -19.33118021443378 -15.867749261580013 0 0 1
3266 689 2 0.5564 7.381875581728278 -11.78844903011293 -12.65701230570495 0 0 0
1750 184 1 -1.1128 5.499476831568101 19.79781063921082 -15.870090418625335 0 -1 1
2999 600 2 0.5564 7.957881881969299 -15.335719746454947 -16.50678593791906 0 0 1
2998 600 1 -1.1128 7.636163392500527 -14.480994898502539 -16.220125012279208 0 0 1
3942 914 2 0.5564 8.691345219597968 -12.855808759197066 -15.46864739092352 0 1 1
3791 864 2 0.5564 7.183177430315667 -16.809708411733144 -15.671007542097223 0 0 0
3830 877 2 0.5564 10.811337001916758 -14.385589919012663 -17.477100587985028 0 0 1
4119 973 2 0.5564 13.094277263907024 -12.83456605444025 -12.002716776724268 0 0 0
4117 973 1 -1.1128 12.805361016568686 -13.724856134268444 -11.802360147375119 0 0 0
3940 914 1 -1.1128 9.58081924998577 -12.579513658842432 -15.689393309280687 0 1 1
3767 856 2 0.5564 13.201666246329749 -12.235354774341333 -14.10684245685461 0 1 1
3766 856 1 -1.1128 13.367203852854654 -11.51562338356725 -13.497895944767585 0 1 1
3868 890 1 -1.1128 11.03275447545334 -14.278120250943683 -14.005283726497241 0 1 1
3869 890 2 0.5564 10.639331039031887 -15.150674525896214 -14.015227334192385 0 1 1
3870 890 2 0.5564 11.770364296779228 -14.35432848828577 -13.400010345083805 0 1 1
3768 856 2 0.5564 13.873537923595451 -10.882410378304609 -14.006717087859911 0 1 1
3182 661 2 0.5564 9.677301872985941 -16.332877201960656 -16.98228820433013 0 0 1
3183 661 2 0.5564 8.464820969101181 -16.7844142884161 -17.76835396075284 0 0 1
3181 661 1 -1.1128 8.894195668960974 -16.87956264934801 -16.918168137132 0 0 1
4393 1065 1 -1.1128 13.854528188537646 -18.107437573626118 -11.7388816735376 0 1 0
4395 1065 2 0.5564 13.397830705689941 -17.62313193807123 -12.426709613297326 0 1 0
3746 849 2 0.5564 11.61787928708449 -17.2383438928394 -14.386667265414236 0 1 1
4394 1065 2 0.5564 14.196579251253485 -18.8852191171882 -12.179663590065562 0 1 0
3769 857 1 -1.1128 14.034489751358649 -15.451845476779765 -10.07963501700146 0 0 0
3770 857 2 0.5564 13.21767440757356 -15.677906236610278 -9.634729344202567 0 0 0
3771 857 2 0.5564 14.289413746606186 -16.25398204122761 -10.53551042342094 0 0 0
3745 849 1 -1.1128 12.528328435346614 -17.013057002612513 -14.195460640543686 0 1 1
3747 849 2 0.5564 12.850228686300204 -16.609960137830353 -15.001763904866129 0 1 1
3083 628 2 0.5564 11.66159039459952 -19.55618157376469 -18.700872847229412 0 1 0
4307 1036 2 0.5564 9.019084222002467 -16.005748156152137 -13.389527800359033 0 0 0
4306 1036 1 -1.1128 9.623440633702357 -16.57812230973638 -13.86215135698124 0 0 0
4308 1036 2 0.5564 9.546204706051805 -17.424547612934955 -13.421889316614973 0 0 0
1752 184 2 0.5564 5.8273483397521675 19.386802604600106 -16.669968226363032 0 -1 1
3823 875 1 -1.1128 13.323563064930761 19.41848757885713 -17.508513796650654 0 0 1
3956 919 2 0.5564 7.270152838785023 -10.714030339101859 -18.47171676671848 0 0 0
3829 877 1 -1.1128 11.080430431280961 -15.28513273980966 -17.29097365401106 0 0 1
3831 877 2 0.5564 11.719277329410883 -15.490623749726337 -17.973527607883124 0 0 1
3082 628 1 -1.1128 10.762452603090775 -19.229073549184108 -18.728860906418934 0 1 0
3084 628 2 0.5564 10.781597418432863 -18.530118703585767 -19.382563768887668 0 1 0
4245 1015 2 0.5564 13.758084583848941 -18.73448494653632 -17.040369415549485 0 1 1
3512 771 2 0.5564 8.908844329629142 -19.836942793264143 -19.252866602547975 0 0 1
1170 78 4 0.123 14.613007872672549 -13.576483584059753 -18.61632442962289 0 1 0
1169 78 5 -0.08699999999999999 15.074526833812902 -14.00044265023916 -17.731690284500523 0 1 0
1156 78 4 0.134 14.84091882391289 -12.211136191567197 -16.51307398328145 0 1 0
1157 78 5 -0.184 15.004739380085999 -13.315478415234294 -16.54268332414472 0 1 0
1160 78 5 -0.271 15.954857091019878 -15.264898824459356 -15.4485629951041 0 1 0
1167 78 5 -0.271 15.50511575499997 -15.314824872877685 -17.832068676959125 0 1 0
1168 78 4 0.147 15.405912855011005 -15.85683604008135 -18.717715420374173 0 1 0
1165 78 4 0.123 17.653064569519213 -16.993026502782417 -15.952325449774676 0 1 0
1163 78 3 -0.439 16.84504816931047 -17.17564296316695 -16.675237770115007 0 1 0
1162 78 5 0.296 15.963085174427139 -15.975350198630817 -16.690399850012064 0 1 0
1166 78 4 0.123 16.352784539656884 -18.06273209668256 -16.36454363188796 0 1 0
1164 78 4 0.123 17.191079881498204 -17.42360969610323 -17.700660369457342 0 1 0
1158 78 5 -0.08699999999999999 15.405320415095579 -13.963590602174587 -15.377907951276306 0 1 0
1159 78 4 0.123 15.461108556187153 -13.401150008792142 -14.407212040774496 0 1 0
1161 78 4 0.147 16.384111526372944 -15.705543189334279 -14.551996839813327 0 1 0
1424 95 5 -0.08699999999999999 3.5681524301539405 -11.670451843122736 -16.031674758825478 0 0 0
1425 95 4 0.123 4.031549738807257 -11.756426655134891 -15.07205635661646 0 0 0
1411 95 4 0.134 4.831981692659214 -10.16032391650378 -16.72900770392238 0 0 0
1412 95 5 -0.184 4.087528559755335 -10.868012834648617 -17.025736368225637 0 0 0
1413 95 5 -0.08699999999999999 3.7230757925034523 -11.057006690138843 -18.32082525785026 0 0 0
1414 95 4 0.123 4.048886122619001 -10.338818041408338 -19.013542022955416 0 0 0
3677 826 2 0.5564 5.339609775357596 -5.0415084349472306 -12.543378457988718 0 0 1
3676 826 1 -1.1128 4.602566729354228 -5.229521824603912 -13.124455343122799 0 0 1
3678 826 2 0.5564 4.893686707871052 -5.97657452495417 -13.647325555182084 0 0 1
4474 1092 1 -1.1128 5.762838851059891 -7.056412186025329 -15.025798742158443 0 0 0
4475 1092 2 0.5564 6.010389844029493 -7.863859332435177 -14.575266342301228 0 0 0
4476 1092 2 0.5564 5.4065989289231915 -7.349170662574761 -15.864617807055645 0 0 0
3458 753 2 0.5564 0.3074958055995261 -10.861535286794163 13.935629989648259 0 0 0
3246 682 2 0.5564 5.370885105839822 -8.75580427861948 -18.03758739309528 0 0 0
1275 85 4 0.123 1.8864346834194727 -7.212256956587361 -15.80375862488993 0 0 0
3244 682 1 -1.1128 4.810736810634169 -8.001702117838136 -17.853751547526794 0 0 0
3129 643 2 0.5564 6.693713042373869 -10.281819089423047 -13.818689736991775 0 0 0
1274 85 5 -0.08699999999999999 1.1818969128762666 -7.404944819689746 -14.954580501277913 0 0 0
3318 706 2 0.5564 4.8304952311514455 -6.250286141074828 -18.81687256196112 0 0 1
3245 682 2 0.5564 3.9595792013219753 -8.239713393708698 -18.22132897400768 0 0 0
3317 706 2 0.5564 4.0952405509157295 -5.693932255492753 19.982391833891082 0 0 0
3316 706 1 -1.1128 4.493586938905379 -5.434299583825016 -19.18685981349006 0 0 1
3664 822 1 -1.1128 6.514350473190568 -8.366817031702743 19.40414970103975 0 0 0
2972 591 2 0.5564 7.272709997917066 -3.6367215533413533 -18.995087349273124 0 0 1
2358 386 2 0.5564 1.530321801383408 -3.6988087559059517 -14.935072640474434 0 0 0
1800 200 2 0.5564 3.7736931535242086 -4.212885976598277 -17.48449115417918 0 0 0
1262 85 5 -0.184 1.636286691249737 -7.220159986283899 -13.654796290864217 0 0 0
1263 85 5 -0.08699999999999999 0.7713515597918214 -7.4759498751835824 -12.590942404929597 0 0 0
1261 85 4 0.134 2.706410144511183 -7.261585977170444 -13.416603002776574 0 0 0
2366 389 2 0.5564 0.3611567009205973 6.600650306341916 -1.3800976497378854 0 0 0
1803 201 2 0.5564 0.5857979076734133 9.868725489407426 -2.1088779910027315 0 0 0
3885 895 2 0.5564 0.39105475428075004 10.003401400256369 12.594884622063118 0 0 0
4461 1087 2 0.5564 0.5785531823407133 -2.9249919129755826 13.359321800456922 0 0 0
841 57 4 0.134 3.1777287864055372 -10.618146273121265 -11.756555466968065 0 0 0
842 57 5 -0.184 2.2642079529817254 -11.188165512868654 -11.680001992443993 0 0 0
3957 919 2 0.5564 7.789365329164929 -9.478810444306912 -17.767057068389732 0 0 0
3519 773 2 0.5564 9.447751004628515 -10.967148305523787 -12.188249692635216 0 0 0
3195 665 2 0.5564 9.567870974594685 -12.679349012252814 -17.57879202784954 0 0 0
3193 665 1 -1.1128 10.083677023650349 -12.93599564208966 -18.343192767381037 0 0 0
3194 665 2 0.5564 10.784916084850227 -12.286056426648567 -18.388740989781034 0 0 0
3469 757 1 -1.1128 11.711571447661841 -8.925225201947457 -13.339516456189665 0 0 1
3470 757 2 0.5564 12.456930759744989 -8.33095373318981 -13.426192086490316 0 0 1
3471 757 2 0.5564 12.101836123888312 -9.799131427786792 -13.324914304228805 0 0 1
3918 906 2 0.5564 11.81405995651782 -8.955517078202627 -15.432356333424256 0 0 0
3955 919 1 -1.1128 7.110229822491593 -9.775476367681911 -18.37285915788084 0 0 0
4480 1094 1 -1.1128 8.920226784307353 -9.000415204918774 -16.53965486249897 0 0 0
4481 1094 2 0.5564 8.762569772859242 -8.08228702203791 -16.319616741102 0 0 0
4482 1094 2 0.5564 8.49103630822883 -9.492119226103165 -15.839473092618555 0 0 0
3917 906 2 0.5564 10.732622341608918 -8.942071530163874 -16.491699043608033 0 0 0
3756 852 2 0.5564 7.311731412307294 -6.505239277214431 -15.661065167919174 0 0 0
3127 643 1 -1.1128 6.90618046202514 -9.453158929208566 -14.248121661055281 0 0 0
3128 643 2 0.5564 7.710206457334231 -9.159929698297027 -13.819413521851727 0 0 0
3666 822 2 0.5564 7.002701820384166 -7.559091266797694 19.56328454425154 0 0 0
3665 822 2 0.5564 6.682146251108152 -8.90506449477637 -19.822309056990104 0 0 1
4499 1100 2 0.5564 14.808937864595034 -8.740745245879161 -14.866139954769475 0 0 0
3916 906 1 -1.1128 11.677980228271172 -8.849120600221712 -16.37384126952926 0 0 0
3218 673 2 0.5564 12.064156819479855 -6.954314092171603 -15.905579243760215 0 1 0
3063 621 2 0.5564 11.293761062334928 -9.975190790306243 -19.31178327777223 0 0 0
3062 621 2 0.5564 11.485547467835227 -10.15430905651685 -17.820800447473932 0 0 0
3061 621 1 -1.1128 11.495897433244238 -10.63502836826377 -18.648468052299748 0 0 0
3217 673 1 -1.1128 12.045429378542755 -6.0853733857604615 -15.504551602160122 0 1 0
3704 835 2 0.5564 15.442575188678477 -6.03103604712945 -14.933128357048503 0 0 0
3703 835 1 -1.1128 14.756275750012591 -6.69528802027031 -14.996328132428285 0 0 0
3705 835 2 0.5564 13.943126243526827 -6.194665957798658 -15.062639954251003 0 0 0
4498 1100 1 -1.1128 14.562966498246539 -9.644426059082766 -15.063854124176048 0 0 0
3152 651 2 0.5564 8.39516793633286 -6.031476189938091 -19.537208167311373 0 0 1
3219 673 2 0.5564 11.74433677426649 -5.504895415856224 -16.203565489165687 0 1 0
3544 782 1 -1.1128 10.047568139972157 -6.013571149775075 -13.610458839307645 0 0 0
3546 782 2 0.5564 9.201088264039123 -6.323344596308729 -13.932552030848662 0 0 0
3545 782 2 0.5564 10.605898097949163 -5.989656200051748 -14.387586566983524 0 0 0
2971 591 1 -1.1128 8.12144822519619 -3.920328826531996 -18.655319532750255 0 0 1
3754 852 1 -1.1128 8.21920485460831 -6.434087271337613 -15.95714150260577 0 0 0
3755 852 2 0.5564 8.332827356577848 -5.505929972100613 -16.16170386195903 0 0 0
3151 651 1 -1.1128 8.582584642134869 -6.57198962838191 19.69535972844819 0 0 0
4374 1058 2 0.5564 9.97144833947047 -4.58955085148819 -17.63490578351625 0 0 1
4372 1058 1 -1.1128 10.919067654688673 -4.511441045817577 -17.524686591841807 0 0 1
4500 1100 2 0.5564 14.008459190182663 -9.577618764013032 -15.841215214008379 0 0 0
1228 82 4 0.147 0.18910765030781823 -8.13509283857615 1.7905079701074345 0 0 0
3570 790 2 0.5564 4.531881808607769 -3.551256107853834 -13.81561301201629 0 0 0
3568 790 1 -1.1128 4.512528911685496 -2.7779738760699293 -14.379432016408149 0 0 0
3569 790 2 0.5564 4.604278326480213 -3.1254660751389234 -15.266597752975489 0 0 0
1799 200 2 0.5564 4.346603667283954 -2.815910696230867 -17.594621695295135 0 0 0
1798 200 1 -1.1128 4.013648166130612 -3.449570424454563 -16.95913148739041 0 0 0
3012 604 2 0.5564 7.183439027250916 1.9686879507377633 -15.497810306876554 0 0 0
4472 1091 2 0.5564 2.120519524094767 -0.18593557854004064 -14.391003294786547 0 0 1
4471 1091 1 -1.1128 3.0365406288901586 0.03624326386575568 -14.224348645838138 0 0 1
4473 1091 2 0.5564 3.4655859968664764 -0.8071273787500506 -14.079856854170494 0 0 1
2357 386 2 0.5564 2.3412580069568953 -3.314099454857604 -16.154201968469195 0 0 0
2356 386 1 -1.1128 1.4705488838151524 -3.227601522363744 -15.766109808091274 0 0 0
3010 604 1 -1.1128 6.5809676967759305 2.000699778881287 -16.24093570020703 0 0 0
3011 604 2 0.5564 7.0372327087812865 1.532532078502166 -16.94013026832005 0 0 0
4227 1009 2 0.5564 3.452862760756902 1.6883048824097813 -18.40702244710646 0 0 0
2982 594 2 0.5564 2.47118454630749 1.7933917061908797 -14.042630362114773 0 0 0
4225 1009 1 -1.1128 4.280555132022352 2.0632165111695944 -18.708018181101355 0 0 0
2980 594 1 -1.1128 1.9107998383722868 2.563962538920398 -13.95086212963142 0 0 0
2981 594 2 0.5564 1.048457315128509 2.20920208871456 -13.734662614366133 0 0 0
3053 618 2 0.5564 5.091868852269196 -0.8301742623279409 -17.747384116878614 0 0 0
3052 618 1 -1.1128 5.368828011080437 -1.3215222112703187 -18.520755120970428 0 0 0
3698 833 2 0.5564 6.759397597118133 -1.1113894119745116 -13.9849224441327 0 0 1
2147 316 2 0.5564 0.5868728413056091 0.6897296324582642 -19.515766777225043 0 0 1
4208 1003 2 0.5564 1.2425585291856152 1.461307597903335 -17.1722341248942 0 0 0
4207 1003 1 -1.1128 1.1502878475204568 0.6223033050280169 -17.623664938145517 0 0 0
3697 833 1 -1.1128 7.613439748369825 -1.3612206443358679 -13.632178685728464 0 0 1
4226 1009 2 0.5564 4.557636046445724 2.6374254293074975 -17.994055930221954 0 0 0
3323 708 2 0.5564 1.6571092223186614 3.628413175578643 -16.997388133239244 0 0 0
965 65 5 -0.271 0.7135373037408139 -4.09129554909514 -19.044595461204022 0 0 0
4209 1003 2 0.5564 1.0732824051641774 -0.021762905050680185 -16.919761032225797 0 0 0
1350 90 4 0.123 3.6228530601303746 1.5335052750121532 -12.02634445405605 0 0 0
3322 708 1 -1.1128 0.9414474207468937 3.0964664181761257 -16.649404399776806 0 0 0
1523 108 2 0.5564 0.7189839773478128 -1.7814755644302054 -15.352050079736923 0 0 0
3324 708 2 0.5564 1.1120465457197202 3.050521670018039 -15.708651054289646 0 0 0
1522 108 1 -1.1128 0.5157576074997873 -0.872193539327311 -15.132648403956166 0 0 0
3054 618 2 0.5564 4.6560514354536755 -1.202746539488651 -19.14850801371996 0 0 0
2973 591 2 0.5564 8.703814251719017 -3.1773923681145115 -18.81383475938884 0 0 1
3994 932 1 -1.1128 10.14051863266387 -1.9245260100094108 -18.740877899034725 0 0 1
3171 657 2 0.5564 10.947418945663044 2.465099290516911 -13.990495994042828 0 0 0
3169 657 1 -1.1128 11.17156928490318 1.697473551761432 -14.516556071318835 0 0 0
3170 657 2 0.5564 11.869833364938994 2.000021203349209 -15.097179873992705 0 0 0
4484 1095 2 0.5564 11.310205182883298 -0.21416573345887696 -14.6604682911969 0 0 1
4483 1095 1 -1.1128 11.482974566355823 -1.1417266438124094 -14.499182037145788 0 0 1
3289 697 1 -1.1128 8.656917206726794 -2.952395848577287 -15.607795992753726 0 0 1
3290 697 2 0.5564 8.542930891083646 -2.678107294763239 -16.51774365533829 0 0 1
3291 697 2 0.5564 9.547233660288168 -2.6805512750908362 -15.384930732701067 0 0 1
4367 1056 2 0.5564 8.572714545452225 0.4169701048199492 -14.115723886383167 0 0 0
4366 1056 1 -1.1128 8.620248682488272 1.3703090285728834 -14.187258613190266 0 0 0
4368 1056 2 0.5564 9.55673819330075 1.5604089976550053 -14.242767352404138 0 0 0
3699 833 2 0.5564 7.898436619621091 -2.088178846112987 -14.185839569098473 0 0 1
3934 912 1 -1.1128 12.03081235786961 3.102588958426285 -16.977119688663624 0 0 1
4485 1095 2 0.5564 11.136971350473463 -1.3011396062406588 -13.6210584529525 0 0 1
3564 788 2 0.5564 8.08161436192178 1.1402822936451307 -12.275423651230478 0 0 0
1336 90 4 0.134 6.173819945663598 1.817686054423867 -12.274172436479054 0 0 0
3048 616 2 0.5564 0.2682047190218736 -0.5779612814437407 -11.126562686122309 0 0 0
3482 761 2 0.5564 0.06650194865107363 6.543051118661625 0.6936013210984782 0 0 0
2719 507 1 -1.1128 0.48358247540518806 -16.449908710092505 -4.365326201861479 0 0 0
4463 1088 2 0.5564 6.659685873742984 4.541463187154827 -15.341365591672613 0 0 0
4464 1088 2 0.5564 6.680988295098559 5.989769951583319 -15.781648370323206 0 0 0
4462 1088 1 -1.1128 7.21420748726496 5.321620483742587 -15.350968175742395 0 0 0
3493 765 1 -1.1128 3.6205096723366195 4.549523803745084 -14.432095093696162 0 0 0
3495 765 2 0.5564 2.9446627735452435 3.904853208554205 -14.222661011637573 0 0 0
3494 765 2 0.5564 3.8121220657799486 4.97627574013195 -13.596990729566228 0 0 0
3796 866 1 -1.1128 6.252726096097087 8.164720252605708 -12.804248316926941 0 0 0
3798 866 2 0.5564 6.437982606422171 7.799903666519968 -13.669592587149719 0 0 0
3797 866 2 0.5564 7.0207612393467835 7.939301343662926 -12.279329126285994 0 0 0
4140 980 2 0.5564 7.2151126206283465 7.468669974917566 -16.990491950548574 0 0 0
4139 980 2 0.5564 5.829669608705984 7.506365940798736 -17.599607557021518 0 0 0
4138 980 1 -1.1128 6.28850411152994 7.373437777821853 -16.770130113519198 0 0 0
2234 345 2 0.5564 3.7791984837426575 4.533809066940091 -16.254394915260217 0 0 0
2233 345 1 -1.1128 3.5022192877790816 4.389210686025914 -17.159163149201582 0 0 0
2235 345 2 0.5564 3.9717013978074283 5.05399650456003 -17.663026378933218 0 0 0
3961 921 1 -1.1128 7.230577620423809 9.53370277220457 -19.280361649144503 0 0 0
3963 921 2 0.5564 6.452641187103106 9.011533995903786 -19.47628638242856 0 0 0
2966 589 2 0.5564 4.377217987280463 -0.024817153632535963 -15.528033697064927 0 0 1
576 39 4 0.147 1.9112826248759447 8.81502786438564 -16.851781916475108 0 0 0
3962 921 2 0.5564 7.772438181453413 9.461168515156274 19.933917193106446 0 0 -1
2843 548 2 0.5564 7.021506912749659 11.105708246870169 -18.32525230242504 0 0 0
501 34 4 0.147 4.514807888169569 10.281617121067658 -11.332217551251517 0 0 0
2913 571 2 0.5564 5.833722670658598 6.910736262208261 -19.788305245933433 0 0 1
2967 589 2 0.5564 5.509655666276163 0.7051356466168057 -16.21843141800895 0 0 1
2965 589 1 -1.1128 4.966666101558203 -0.08073130194759569 -16.28013498087466 0 0 1
2911 571 1 -1.1128 5.286420255167633 7.623313192963553 -19.45826580284129 0 0 1
2912 571 2 0.5564 4.5294647454627395 7.635594971047547 19.95598735859237 0 0 0
4165 989 1 -1.1128 5.939319461107622 11.821037796321592 -15.39418088980754 0 0 0
574 39 4 0.123 3.8630865880377874 9.012231160329126 -15.27041004040706 0 0 0
972 65 5 -0.271 0.7006493001602699 -5.311671376874618 18.847211603403977 0 0 -1
573 39 5 -0.08699999999999999 2.864676316739297 9.454834704937232 -15.038241319644774 0 0 0
577 39 5 0.296 0.6289079330664511 10.095398547074321 -15.828573331366293 0 0 0
575 39 5 -0.271 1.7963003481592994 9.403636978835488 -15.953118797284194 0 0 0
3741 847 2 0.5564 7.784800308967833 5.466539451947881 -19.251024702078492 0 0 1
3739 847 1 -1.1128 7.193379323638896 5.754357712144226 -19.946448081553843 0 0 1
572 39 5 -0.184 2.776280967646365 10.432692760090607 -14.05786439030276 0 0 0
571 39 4 0.134 3.5193665594889803 10.532100231642483 -13.255741521823214 0 0 0
1839 213 2 0.5564 0.14248103085028116 16.793435189299103 -19.650103295979527 0 0 1
3442 748 1 -1.1128 0.35076923255127296 -11.482435409590474 10.355232718233243 0 0 0
400 27 4 0.123 1.2407819094827537 -6.346937913805892 -2.727851767060875 0 0 0
265 18 4 0.123 0.6827570530096541 9.661149704447991 -10.984216407462842 0 0 0
4327 1043 1 -1.1128 8.051765531599255 18.359856730038825 16.452028551315504 0 0 0
4489 1097 1 -1.1128 10.730626461942633 3.844018549800994 -12.802607833941318 0 0 0
4491 1097 2 0.5564 10.341836103063079 3.587224281877356 -11.966467538409615 0 0 0
3936 912 2 0.5564 12.278205738066408 3.9128955841267827 -17.422576171838116 0 0 1
3908 903 2 0.5564 11.976495423726771 2.38514963537266 19.809542242400944 0 0 -1
3909 903 2 0.5564 12.664064344933088 3.7105552171764824 -19.940569498541326 0 0 0
3907 903 1 -1.1128 12.226394380117625 3.201662624456178 19.37700453387638 0 0 -1
1536 112 2 0.5564 9.25478361038316 5.672655681186362 -17.889446572776293 0 0 0
1535 112 2 0.5564 8.313504605249445 4.600983506320453 -17.382092934296892 0 0 0
1534 112 1 -1.1128 8.966922393657349 4.77572523352947 -18.059398125453484 0 0 0
3813 871 2 0.5564 10.015745899497936 7.803330286346958 -17.450814526593525 0 0 0
3811 871 1 -1.1128 9.096010319843915 7.593821493438458 -17.613370153060636 0 0 0
3812 871 2 0.5564 8.788206856979416 8.294600609051255 -18.188172278982115 0 0 0
4018 940 1 -1.1128 8.724512685439766 7.577095912081483 -11.518977352481555 0 0 1
4166 989 2 0.5564 5.560362173607178 10.961636230754348 -15.209648616402372 0 0 0
4490 1097 2 0.5564 10.33624794713443 4.693615715238599 -12.999793213533563 0 0 0
4114 972 1 -1.1128 12.304720121837637 5.721113562695107 -18.917824056905793 0 0 0
4116 972 2 0.5564 11.93172743721477 6.210906116831427 -18.18487689779899 0 0 0
4115 972 2 0.5564 13.217991616792975 6.00516760482803 -18.956298444109617 0 0 0
3251 684 2 0.5564 8.334264478729567 5.807791758743367 -14.155771947206384 0 0 1
3250 684 1 -1.1128 8.994268681805767 6.177544404083243 -13.569334138486468 0 0 1
4019 940 2 0.5564 8.886678055509815 6.866262702361339 -12.13917927020649 0 0 1
3252 684 2 0.5564 9.080087391020925 7.088985329734587 -13.848873893769994 0 0 1
3935 912 2 0.5564 11.096723605005202 3.0031737698894645 -17.161039817206095 0 0 1
3386 729 2 0.5564 12.464039386342698 5.370655471595624 -13.69194976120546 0 0 0
3816 872 2 0.5564 9.367524781160874 9.26361205359263 -15.24301740259303 0 0 0
3814 872 1 -1.1128 9.165840045005167 8.81578050530184 -14.421432343420722 0 0 0
3815 872 2 0.5564 8.861290391094093 9.510673956850752 -13.837819094019716 0 0 0
3897 899 2 0.5564 11.552911049241015 8.440884713538559 -16.082075966379694 0 0 0
3895 899 1 -1.1128 11.723724670594754 7.709744072059549 -16.675782889682235 0 0 0
3896 899 2 0.5564 12.362360381716279 7.168170650690151 -16.21202164091527 0 0 0
3121 641 1 -1.1128 10.877238647242196 9.292126955423385 -11.68673805784366 0 0 0
3122 641 2 0.5564 11.149823370810356 9.664017584262288 -12.525562688155842 0 0 0
4408 1070 1 -1.1128 11.576365766385432 10.853968608118892 -17.261067612778167 0 0 0
3385 729 1 -1.1128 12.841669905910306 6.248162400762214 -13.752021487413902 0 0 0
4086 962 2 0.5564 12.428292981044436 10.580150021508523 -18.78115016929443 0 0 1
4232 1011 2 0.5564 13.336818926529606 9.747936194864677 -14.468136822367605 0 0 0
3920 907 2 0.5564 15.061120810597101 8.280203192920922 -18.74373763590773 0 0 0
3919 907 1 -1.1128 14.248844214145018 7.781815684385139 -18.833450551282713 0 0 0
4231 1011 1 -1.1128 12.516324480700389 10.221970940694671 -14.603457622805973 0 0 0
3123 641 2 0.5564 10.117224988733158 8.750675880456642 -11.899908864259608 0 0 0
3387 729 2 0.5564 13.284293174205724 6.376892519869155 -12.913126359806164 0 0 0
3921 907 2 0.5564 13.600020911550004 8.428376723700083 -19.111333585007568 0 0 0
4492 1098 1 -1.1128 7.795865123013212 10.787407907543805 -12.944428126369406 0 0 0
3668 823 2 0.5564 11.885681233229993 9.270602748241233 18.737329291930052 0 -1 0
4314 1038 2 0.5564 11.165122054499053 6.145672550277442 19.574009629339436 0 0 -1
4312 1038 1 -1.1128 10.529340591970959 6.357490090372288 18.89052813767122 0 0 -1
3044 615 2 0.5564 13.812617479039588 7.674126521086807 -14.617837922622924 0 0 0
3043 615 1 -1.1128 14.477343431584831 8.169577961147917 -15.096271948114355 0 0 0
3501 767 2 0.5564 8.246975379533334 11.168100680446415 -15.675488715529836 0 0 0
3500 767 2 0.5564 8.724881022952195 11.23585199108878 -17.11037931867907 0 0 0
4409 1070 2 0.5564 10.796665259015496 11.286860888354685 -16.913356219889828 0 0 0
3499 767 1 -1.1128 9.005509098148341 10.985696626267025 -16.230094148477338 0 0 0
4493 1098 2 0.5564 7.093581976124625 10.145379167385046 -12.840364216292013 0 0 0
3669 823 2 0.5564 11.133633778553124 8.456321693622789 17.706181461685276 0 -1 0
3045 615 2 0.5564 14.193641081258267 8.131821063133794 -16.00968271043308 0 0 0
1700 167 2 0.5564 1.1322528361858082 18.61458296653142 -15.4367219200531 0 -1 0
1699 167 1 -1.1128 1.4288154043360946 19.427712674057105 -15.02794011717336 0 -1 0
3953 918 2 0.5564 3.2891779330395368 -19.574736135846567 -12.999823027613749 0 0 0
4335 1045 2 0.5564 5.387032935549017 18.369179608088608 -14.750144590964656 0 -1 0
969 65 4 0.123 2.233666010125718 -6.441722980736826 -18.415585766508467 0 0 0
3412 738 1 -1.1128 0.15598282260901533 12.564454529048076 -19.982866978941672 0 0 1
3451 751 1 -1.1128 0.7828832301537495 2.787388956890531 13.460503442029854 0 0 0
3911 904 2 0.5564 7.425190810281448 13.774500672512872 -18.624433342054235 0 0 0
2842 548 1 -1.1128 6.987307722526858 11.989910262938167 -17.960219396080817 0 0 0
2844 548 2 0.5564 6.607741261793108 11.875352839180145 -17.08899169975059 0 0 0
2932 578 1 -1.1128 2.721215017387597 12.826841100354038 -16.552322029313 0 0 0
2934 578 2 0.5564 2.404880023885966 11.973418335988987 -16.255954778077122 0 0 0
3910 904 1 -1.1128 8.005113652226377 14.267832578683654 -19.204558279261853 0 0 0
505 34 4 0.123 2.341719124006044 12.222924193232066 -11.073138029901191 0 0 0
4167 989 2 0.5564 5.245584491658554 12.44196909074617 -15.171901890463566 0 0 0
515 35 5 -0.271 0.7241829315561439 -19.42507648413852 6.951132707887942 0 1 0
2872 558 1 -1.1128 2.3450994062882553 13.999822693140212 -19.16052227834792 0 0 1
2933 578 2 0.5564 2.851378219687168 13.327455525117 -15.746918676233943 0 0 0
2874 558 2 0.5564 2.4846709465365353 13.44533973861206 -18.392863324551787 0 0 1
516 35 4 0.147 0.12250143110541445 -19.17445049353429 7.800826653104534 0 1 0
129 9 4 0.123 1.5592680337348317 -18.829475611224325 16.07920719683052 0 0 0
3620 807 2 0.5564 3.6064809044614066 14.787356921744502 -14.46629136942032 0 0 0
869 58 5 -0.08699999999999999 1.6085478730837335 16.466308845170726 -12.152549688263933 0 -1 0
3131 644 2 0.5564 1.8931597904224229 16.52139482932139 -15.137837893722626 0 0 0
3130 644 1 -1.1128 2.7803028520610833 16.176449799714103 -15.036734347325853 0 0 0
3132 644 2 0.5564 3.2399711580646504 16.842516983986382 -14.525567650340058 0 0 0
870 58 4 0.123 2.623154703787439 16.285641311007822 -12.431319651935882 0 -1 0
3774 858 2 0.5564 2.7762037834152826 19.213288168800545 -18.23142623313619 0 0 0
3772 858 1 -1.1128 3.054165375582123 18.823273806305135 -19.060195185873773 0 0 0
3773 858 2 0.5564 3.3721285163554757 17.952680347917195 -18.821033519275495 0 0 0
4340 1047 2 0.5564 2.281254830337764 -19.491206954644657 -16.317111117723673 0 1 1
3538 780 1 -1.1128 6.302133889867859 18.096273367016742 -17.97400874786134 0 0 1
3539 780 2 0.5564 6.6861673387931315 18.866648441830137 -18.39266420938195 0 0 1
3540 780 2 0.5564 6.505960269744211 17.3737559037623 -18.567856466214277 0 0 1
3845 882 2 0.5564 3.6156023074603794 16.580711823230445 -16.733099770350027 0 0 1
3844 882 1 -1.1128 4.115497210951443 16.648831932569976 -17.546547097592587 0 0 1
3619 807 1 -1.1128 3.9408766822845442 13.9143159823253 -14.260838643265114 0 0 0
2873 558 2 0.5564 2.432858489543312 14.893838677909654 -18.82996897325729 0 0 1
3621 807 2 0.5564 4.6354658442593255 14.067955502204914 -13.620391500632392 0 0 0
504 34 4 0.123 3.8922568660313748 12.683382224114377 -11.680385175539229 0 0 0
503 34 3 -0.439 3.2887027750293343 12.6587995118428 -10.848538554370547 0 0 0
3401 734 2 0.5564 4.505196575965197 18.62523791848076 -11.136668182524799 0 0 0
4334 1045 2 0.5564 5.844517168683638 17.116434990449946 -14.03374086508961 0 -1 0
4333 1045 1 -1.1128 5.076300976139241 17.669600960833318 -14.175455797847667 0 -1 0
3952 918 1 -1.1128 3.7038863978361616 -19.899934691054654 -12.200764450088956 0 0 0
2317 373 1 -1.1128 1.078095265168235 17.94935609613675 19.21109381572375 0 0 0
2319 373 2 0.5564 1.8345435922103623 18.24104469990093 19.71995086392519 0 0 0
3692 831 2 0.5564 6.878859418296277 15.61904409962564 -11.212972602920464 0 -1 0
1421 95 4 0.123 0.4652629046709345 -13.71412887728103 -18.46708774889573 0 0 0
4460 1087 2 0.5564 1.6072161860393575 -4.019963434951559 13.545829031148605 0 0 0
3846 882 2 0.5564 4.974676562869453 16.97092805167317 -17.273972766789072 0 0 1
1887 229 2 0.5564 0.2508338542178658 -17.3538988081671 2.7135354140322634 0 0 0
1900 234 1 -1.1128 10.530661996735224 -18.914505272015326 -15.953714021677348 0 0 0
1901 234 2 0.5564 10.647253944386726 -18.983938032930975 -16.901246216169252 0 0 0
1902 234 2 0.5564 9.754738715756547 -18.364229494863068 -15.84707684708257 0 0 0
4352 1051 2 0.5564 8.441478339178278 12.750475606886452 -14.095270291684782 0 0 1
4351 1051 1 -1.1128 8.43631763875373 13.707424925766288 -14.116558993907534 0 0 1
4410 1070 2 0.5564 12.273256292344659 11.085284483459823 -16.64700867897912 0 0 0
4233 1011 2 0.5564 12.766558810074754 11.145647962154873 -14.582593091520296 0 0 0
4278 1026 2 0.5564 8.523530549491362 17.87014135727992 -17.286003180960495 0 0 0
4353 1051 2 0.5564 8.708769897790939 13.929135660305459 -15.006977971063739 0 0 1
3140 647 2 0.5564 12.053417935453528 13.562129144567544 -14.29153814176909 0 0 0
3139 647 1 -1.1128 12.695720741412753 13.255657201676229 -14.931658282885195 0 0 0
4276 1026 1 -1.1128 9.150535906920297 17.33979134820345 -16.794246139132007 0 0 0
4277 1026 2 0.5564 8.947967282785847 16.437620489871488 -17.0418052856516 0 0 0
4299 1033 2 0.5564 10.318857526756986 17.406912492900002 -18.272232492153417 0 0 0
3824 875 2 0.5564 12.692254370174282 18.991110900772522 -16.92969575295219 0 0 1
3825 875 2 0.5564 13.906877399420107 18.713555221941895 -17.789666034613127 0 0 1
4206 1002 2 0.5564 8.13792736317727 16.567286414752445 -13.131171723247286 0 0 0
4204 1002 1 -1.1128 7.405243142281578 15.95164360056248 -13.111434183737408 0 0 0
4205 1002 2 0.5564 7.796670359352789 15.105691083599272 -13.329105788040282 0 0 0
3857 886 2 0.5564 10.372790833022096 17.948733930556834 -15.952741341791166 0 0 0
3638 813 2 0.5564 12.139461215966456 16.821819088521803 -15.420364781422508 0 0 1
3286 696 1 -1.1128 11.223777129697597 14.39864448468848 -19.5547528918784 0 0 0
3856 886 1 -1.1128 10.995791160489725 18.43082775586662 -15.408969309823968 0 0 0
3637 813 1 -1.1128 12.540524883284467 16.040571452487725 -15.801195311310028 0 0 1
3639 813 2 0.5564 13.131970603623394 16.37807460076318 -16.47388795206649 0 0 1
3328 710 1 -1.1128 9.918442487070491 16.97919297292405 -12.763253787594488 0 0 0
3329 710 2 0.5564 9.988768395294802 16.02521867341076 -12.728338176178234 0 0 0
3330 710 2 0.5564 10.533309540420278 17.240226305232994 -13.44884251787844 0 0 0
3858 886 2 0.5564 10.704802389901882 19.341278681530643 -15.460316110130691 0 0 0
3112 638 1 -1.1128 14.734902590345998 15.096700967217432 18.80171438085627 0 -1 -1
3743 848 2 0.5564 10.33081604969023 14.32316444665898 -17.375163532309546 0 0 1
3742 848 1 -1.1128 10.062750491456248 14.47181447485619 -16.468369330078595 0 0 1
3744 848 2 0.5564 10.87934742718666 14.44705968411244 -15.969582380952907 0 0 1
3141 647 2 0.5564 13.077704583391737 14.056546764795414 -15.290679281652098 0 0 0
4042 948 1 -1.1128 13.790283718609338 17.007226677619567 -18.691669641937132 0 0 1
4044 948 2 0.5564 14.044399501382111 16.493242258638013 -19.45814010182381 0 0 1
4043 948 2 0.5564 12.940777868437443 17.38172471362536 -18.924742244680147 0 0 1
3511 771 1 -1.1128 8.016030552358258 19.83329693869991 -19.35471729111673 0 -1 1
3137 646 2 0.5564 10.042994769898014 13.935230476496479 -13.242137610138156 0 0 0
3136 646 1 -1.1128 10.94702682434258 14.0463014662347 -12.947822929864717 0 0 0
3138 646 2 0.5564 11.08812646643816 13.328936543292938 -12.32999584917748 0 0 0
3113 638 2 0.5564 15.36381237151473 14.779609816489486 18.153518821886664 0 -1 -1
854 57 5 -0.08699999999999999 2.043061379444924 -11.887845307629645 -10.488533423775067 0 0 0
1869 223 2 0.5564 0.32467708617529173 -15.47220462750245 -5.99583484845486 0 0 0
3651 817 2 0.5564 2.7825654932047303 -17.09090972752956 -7.897523959782552 0 0 0
3649 817 1 -1.1128 2.3961492937979854 -16.37530825902645 -8.402329697654348 0 0 0
3650 817 2 0.5564 1.8117155826618914 -15.934716107804649 -7.78544426682083 0 0 0
3396 732 2 0.5564 5.50971632287384 -17.162702100636253 -10.724387383076497 0 1 0
3394 732 1 -1.1128 5.366019978964615 -17.434966727764365 -11.63072903489566 0 1 0
4022 941 2 0.5564 4.4191499525637745 -16.17196902965702 -8.758037666382975 0 0 0
4021 941 1 -1.1128 5.257663585539107 -16.472034999135385 -9.10887543466966 0 0 0
3548 783 2 0.5564 2.323344231637626 -19.1414974486565 -4.521897687563004 0 0 0
3547 783 1 -1.1128 1.9223079833396384 -18.690491551984636 -5.264861638866148 0 0 0
4023 941 2 0.5564 5.9144738095604055 -16.047167728464043 -8.557223476721262 0 0 0
3377 726 2 0.5564 4.6816437776192785 -10.760876461838947 -9.700392388436493 0 0 0
3376 726 1 -1.1128 5.397687667230755 -11.210606941945125 -10.149007446483138 0 0 0
3378 726 2 0.5564 5.948456864825039 -11.548786465007227 -9.442948146208979 0 0 0
2635 479 1 -1.1128 1.965954115810965 -19.888310136354093 -9.782918482792859 0 0 0
2636 479 2 0.5564 2.4863916258167955 -19.78370709215857 -8.98640430543655 0 0 0
3660 820 2 0.5564 6.2683088755577945 -19.054342916741938 -8.819617815688076 0 0 0
3658 820 1 -1.1128 6.2136032986983905 -18.946922217525117 -7.87003902686607 0 0 0
3659 820 2 0.5564 7.093249622188952 -19.153395737972073 -7.554091647632192 0 0 0
4413 1071 2 0.5564 6.910998119565665 -13.716597730876797 -7.455318148341361 0 0 0
4411 1071 1 -1.1128 7.493882912792664 -14.458319898729018 -7.617568950721612 0 0 0
4249 1017 1 -1.1128 3.3771123015497304 -19.585749809564078 -7.466691295053611 0 0 0
1207 81 5 0.296 7.108957959042467 -19.774942309970513 -3.5506692048912174 0 0 0
1206 81 4 0.147 6.40404599614293 -18.188371256469868 -4.743449201170533 0 0 0
1210 81 4 0.123 6.459498512276433 18.390950510022105 -4.507350423649795 0 -1 0
852 57 5 -0.271 0.9651911834324971 -12.776379533521885 -10.459569176280269 0 0 0
853 57 4 0.147 0.6849173527677076 -13.276887276292934 -9.452994633472873 0 0 0
3549 783 2 0.5564 2.450407870304354 -18.95336265236771 -6.018679313077098 0 0 0
3001 601 1 -1.1128 8.332015053798738 -15.309848270094928 -11.87392491293251 0 0 0
4412 1071 2 0.5564 8.33836099849285 -14.058786378260566 -7.826043460600582 0 0 0
3031 611 1 -1.1128 6.658263288963871 -11.753717575514003 -7.754925916859722 0 0 0
2637 479 2 0.5564 2.539799317658738 -19.584402518256375 -10.486177783181738 0 0 0
4251 1017 2 0.5564 4.249022469158305 -19.251361415715213 -7.6769027693667065 0 0 0
1205 81 5 -0.271 6.830989682758503 -18.401560992201702 -3.8312337454749446 0 0 0
2720 507 2 0.5564 1.0159372125537238 -17.178290126840707 -4.685155456487351 0 0 0
1383 93 5 -0.08699999999999999 0.5816666010756539 19.31103911832519 12.3677285317564 0 0 0
1867 223 1 -1.1128 0.4521845316665276 -15.233214921516272 -6.913907620303085 0 0 0
1838 213 2 0.5564 0.3727235587223957 15.383866621345424 -19.148107485404633 0 0 1
3874 892 1 -1.1128 11.059817530796932 17.64085994563463 15.17989453136724 0 0 0
4118 973 2 0.5564 13.584193958528822 -14.156626793407158 -11.451325820965977 0 0 0
1014 68 4 0.123 13.983410681810295 -12.394320411797953 -8.339680266218599 0 0 0
3517 773 1 -1.1128 9.183390902204156 -11.88496331002109 -12.125311684868443 0 0 0
3518 773 2 0.5564 9.81000147803621 -12.353543117497335 -12.676695389710765 0 0 0
3590 797 2 0.5564 9.126514092069568 -11.280013728561606 -10.226449926261305 0 1 0
3285 695 2 0.5564 9.928384883704746 -17.05742689661929 -8.854174498552856 0 0 0
3582 794 2 0.5564 11.63553629085218 -15.036284835233111 -10.803759079737933 0 1 0
3580 794 1 -1.1128 10.866781346437676 -15.1677819472587 -10.248821084001683 0 1 0
3581 794 2 0.5564 10.149787704255212 -15.320502355767704 -10.864311406344564 0 1 0
3256 686 1 -1.1128 9.814097834473444 -13.390430461380655 -8.023229903157763 0 0 0
3258 686 2 0.5564 10.319367598036788 -13.98301897519804 -8.57980259838967 0 0 0
3257 686 2 0.5564 9.981817942868025 -12.520167231645514 -8.384814907107657 0 0 0
3634 812 1 -1.1128 10.569643472022593 -13.255465881164822 -5.327959649291817 0 0 0
3635 812 2 0.5564 10.586094741677778 -13.408454282539921 -6.272711323536106 0 0 0
3636 812 2 0.5564 10.725980957408686 -12.315779716630962 -5.234256078229104 0 0 0
2935 579 1 -1.1128 11.068314328835756 -17.348975913072955 -4.7156787902802995 0 0 0
1016 68 4 0.123 15.576558965705972 -11.51394496832647 -8.450310611492927 0 0 0
2937 579 2 0.5564 11.077614376106581 -18.15240586776944 -4.195442679270936 0 0 0
4440 1080 2 0.5564 9.402130077228518 -19.282730297846463 -7.460682212366518 0 0 0
4438 1080 1 -1.1128 9.004340375601391 -19.568362834690504 -6.6382412071569625 0 0 0
4439 1080 2 0.5564 8.8690189428115 19.490799659254538 -6.7511338212590895 0 -1 0
3283 695 1 -1.1128 10.045367871619842 -17.999086944037806 -8.728384317059517 0 0 0
3284 695 2 0.5564 10.403264925137528 -18.309670517515038 -9.56005696137083 0 0 0
3187 663 1 -1.1128 10.947545448599149 -18.70040260847256 -11.341140243302975 0 1 0
3188 663 2 0.5564 11.887788384875448 -18.698373461549615 -11.161777988795526 0 1 0
921 62 4 0.147 13.508004557218182 -14.09866930196771 -6.137864129927442 0 0 0
3189 663 2 0.5564 10.716791216229586 -19.627393234493294 -11.401741492031432 0 1 0
3999 933 2 0.5564 10.687786085406787 19.866648819283874 -6.156155270847412 0 -1 0
1015 68 4 0.123 14.943520979158604 -12.225868661098861 -9.879079313174186 0 0 0
919 62 4 0.123 14.1722162030831 -11.731578212737546 -5.432376235225277 0 0 0
918 62 5 -0.08699999999999999 14.558684180074172 -12.642131082553378 -4.9204037060490196 0 0 0
920 62 5 -0.271 14.29479179329362 -13.902848680756305 -5.452112734647006 0 0 0
926 62 4 0.123 15.259469763215273 -16.097366876070048 -6.714874594427402 0 0 0
923 62 3 -0.439 15.00259468915114 -16.251137731857877 -5.620153709139931 0 0 0
925 62 4 0.123 14.018667393642579 -16.741716226764094 -5.621215253374834 0 0 0
922 62 5 0.296 14.955174200848617 -14.964744013400974 -4.850598841655041 0 0 0
2924 575 2 0.5564 3.404709092528287 -4.432119058536827 -12.04478963764876 0 0 0
855 57 4 0.123 2.7146968699309215 -11.712111079916225 -9.655350261455482 0 0 0
2923 575 1 -1.1128 2.693290885282677 -4.086990103801375 -11.505343654048696 0 0 0
3505 769 1 -1.1128 4.628784501350042 -4.612987055378815 -9.073314888037887 0 0 0
3507 769 2 0.5564 4.349345230099299 -4.691456556411384 -9.985448650699528 0 0 0
3506 769 2 0.5564 5.530383007030136 -4.29568171789544 -9.124979565100732 0 0 0
2956 586 1 -1.1128 2.8837490700258726 -8.287442978324224 -5.319099523074519 0 0 0
3156 652 2 0.5564 3.49705621642296 -4.846465091306334 -5.707576176787435 0 0 0
3155 652 2 0.5564 4.282564760032082 -3.555293771682646 -5.6195530111356415 0 0 0
3154 652 1 -1.1128 3.5010075628956896 -3.9905576571702293 -5.27904533133782 0 0 0
2505 435 2 0.5564 4.6837220484408055 -9.623672807543166 -7.777015372105848 0 0 0
3623 808 2 0.5564 6.552034905107307 -9.372215163023622 -5.431426603140796 0 0 0
3622 808 1 -1.1128 5.782019967910231 -9.74774886045441 -5.8583730057245 0 0 0
3624 808 2 0.5564 5.200206013657758 -9.986771628620273 -5.1368520582535915 0 0 0
2503 435 1 -1.1128 4.141691995265351 -9.322333745180565 -8.506145000038023 0 0 0
3281 694 2 0.5564 1.927028395832216 -3.6200981826339715 -7.2771268429477605 0 0 0
3176 659 2 0.5564 1.6898118159407045 -9.316748172333515 -6.614570082313409 0 0 0
3175 659 1 -1.1128 1.389501596145197 -9.89637364386067 -7.3146271732261825 0 0 0
3177 659 2 0.5564 1.2737689922761033 -10.746154456603382 -6.889526779277538 0 0 0
3280 694 1 -1.1128 2.066748642013085 -3.263122578652416 -8.154212051014166 0 0 0
3282 694 2 0.5564 2.938614286416327 -3.5705445542981047 -8.402352856126736 0 0 0
3903 901 2 0.5564 4.911571018365764 -5.924465137292179 -6.909615677867255 0 0 0
2504 435 2 0.5564 3.300236000482117 -9.10407331951961 -8.10546305420003 0 0 0
3902 901 2 0.5564 3.6384636076169357 -5.863463395281364 -7.726543751009809 0 0 0
3055 619 1 -1.1128 7.590231596406897 -3.9661636487396827 -8.507704632469029 0 0 0
3032 611 2 0.5564 6.371228338477888 -11.200013158412156 -7.028803212596691 0 0 0
1264 85 4 0.123 1.1193612108241262 -7.368604879625724 -11.563900859536782 0 0 0
3959 920 2 0.5564 0.8652159850188934 -4.634615521949 -8.971405648429414 0 0 0
3033 611 2 0.5564 7.569883935365614 -11.502095718613305 -7.902797530960527 0 0 0
3056 619 2 0.5564 8.134621362309261 -3.515860476096036 -7.861872942730118 0 0 0
4203 1001 2 0.5564 5.289404287676916 -7.832616076685318 -8.959020891260694 0 0 1
3901 901 1 -1.1128 3.9710330110704617 -6.095036900011147 -6.859362606675767 0 0 0
4202 1001 2 0.5564 5.361594134010013 -6.324763570646526 -9.073321424968926 0 0 1
4201 1001 1 -1.1128 5.905935799080516 -7.111968101134166 -9.088586257381262 0 0 1
4148 983 2 0.5564 5.6735421734673 -1.70691451998355 -7.395232095036932 0 0 0
399 27 4 0.123 0.3166322807405307 -5.182663500164015 -3.679081421388583 0 0 0
1394 93 5 -0.08699999999999999 0.32485925375520003 17.942031212033232 14.393908248400418 0 0 0
858 58 5 -0.08699999999999999 0.06934755108407441 17.547327220853415 -10.62882620697657 0 -1 0
398 27 3 -0.439 0.6989440523767418 -6.268851587002322 -3.6499245267221205 0 0 0
1842 214 2 0.5564 4.803552236294648 -3.7519715325825542 -1.9283538411755163 0 0 0
3046 616 1 -1.1128 0.5521817527146599 0.13846867403842433 -11.694292360127651 0 0 0
991 67 4 0.134 0.9845653881283587 8.076576758197248 6.5500202034361825 0 0 0
3804 868 2 0.5564 9.884660816682748 -8.533953688783923 -12.722748081363576 0 0 0
3802 868 1 -1.1128 9.054118771419574 -8.990335510568395 -12.588035992193248 0 0 0
3803 868 2 0.5564 8.734825512327959 -8.66425439339921 -11.746635531267051 0 0 0
3932 911 2 0.5564 9.809743613105805 -4.956926106716996 -12.20784320347196 0 0 0
3589 797 1 -1.1128 8.95439512861267 -10.938421344733857 -9.34899822453705 0 1 0
1013 68 3 -0.439 14.62059054843641 -11.670794766409069 -8.983674903968339 0 0 0
3591 797 2 0.5564 8.966304639966745 -9.987202734259158 -9.455173197856107 0 1 0
1012 68 5 0.296 13.844976943519024 -10.406057434804577 -9.361085054798336 0 0 0
1017 68 5 -0.271 12.663142624870536 -10.166609530421493 -8.747949546361761 0 0 0
1018 68 4 0.147 12.298009020820142 -10.892343929111078 -7.972681858747839 0 0 0
3057 619 2 0.5564 8.052544133427924 -4.786125258578894 -8.681376224708313 0 0 0
3690 830 2 0.5564 8.738686291248055 -7.464325371992131 -9.621503464533758 0 0 0
3689 830 2 0.5564 7.402491027467179 -8.132720334518234 -9.865891551936357 0 0 0
3688 830 1 -1.1128 8.337754065628248 -8.220750892630619 -10.04964551333221 0 0 0
3931 911 1 -1.1128 9.491115248878609 -4.407952908821936 -11.491368325776918 0 0 0
4136 979 2 0.5564 8.698702076691944 -8.31344046028164 -5.16659909772581 0 0 0
4135 979 1 -1.1128 9.300000438962496 -8.455464583885124 -5.89769501313033 0 0 0
4272 1024 2 0.5564 10.506514657379233 -10.024868751402828 -5.557461181958946 0 0 0
3726 842 2 0.5564 9.64768234894412 -5.443408218538345 -9.852068850293309 0 0 0
3724 842 1 -1.1128 9.631306899488493 -5.923340246613528 -9.024041746825583 0 0 0
4137 979 2 0.5564 9.682674335621117 -7.594088703382013 -6.064500375570679 0 0 0
4270 1024 1 -1.1128 11.166416797391674 -10.66153243117357 -5.282833506645151 0 0 0
3725 842 2 0.5564 10.46798979620324 -5.714122405995243 -8.608805186726551 0 0 0
1020 68 4 0.123 10.801045658743433 -8.839123286523444 -8.664558255528735 0 0 0
4330 1044 1 -1.1128 10.5515072785383 -5.836351424289242 -5.847433603991254 0 0 0
4331 1044 2 0.5564 11.14223051761388 -6.164306537250488 -5.169404647394647 0 0 0
1019 68 5 -0.08699999999999999 11.80868328500972 -9.070849605621769 -9.094175941962389 0 0 0
4433 1078 2 0.5564 12.494771272073786 -4.428580482926889 -7.5336088290368775 0 0 0
4432 1078 1 -1.1128 11.554109018867074 -4.263004259987566 -7.596623588736836 0 0 0
1006 68 4 0.134 11.707282818135518 -7.438492847676912 -10.444012760762751 0 0 0
1007 68 5 -0.184 12.359897720189752 -8.178359045244921 -10.000054988944452 0 0 0
4434 1078 2 0.5564 11.17714561085141 -4.734505485630119 -6.853779685855309 0 0 0
917 62 5 -0.184 15.438249818492723 -12.534104213746348 -3.855906364487887 0 0 0
916 62 4 0.134 15.504290223602748 -11.601773745700367 -3.3164415277326302 0 0 0
1008 68 5 -0.08699999999999999 13.624651810752805 -8.387234453420223 -10.656303441784123 0 0 0
1010 68 5 -0.271 14.308696810046149 -9.526954232371716 -10.355252895304233 0 0 0
4332 1044 2 0.5564 9.774919296157176 -5.545872334601342 -5.369139975611403 0 0 0
1009 68 4 0.123 14.12695056855076 -7.637838929583745 -11.262921969202194 0 0 0
1011 68 4 0.147 15.174851218231206 -9.917580289940954 -10.91308369978146 0 0 0
927 62 5 -0.271 15.793418049247988 -14.827111501154691 -3.7849021902044644 0 0 0
928 62 4 0.147 16.263214528092522 -15.724784686169832 -3.40869899826688 0 0 0
929 62 5 -0.08699999999999999 16.070023791372122 -13.59855821466895 -3.3079938970616305 0 0 0
930 62 4 0.123 16.689689768344394 -13.442454313249184 -2.4249711645082797 0 0 0
4219 1007 1 -1.1128 0.051987296232121324 2.622889491295517 -7.473085677760468 0 0 0
4381 1061 1 -1.1128 6.981591391138657 -3.423292170600282 -11.780113921628587 0 0 1
2925 575 2 0.5564 2.8348589780326736 -3.1403418817242694 -11.49845848069 0 0 0
4255 1019 1 -1.1128 3.0795588089669748 -1.245972503453813 -11.090711201310691 0 0 0
4256 1019 2 0.5564 2.592120846313991 -0.8432013268041404 -10.372093484898038 0 0 0
4257 1019 2 0.5564 2.99552593473576 -0.625796354011572 -11.81497059938499 0 0 0
4382 1061 2 0.5564 7.247676814989026 -2.8859000224507527 -12.526197073655968 0 0 1
4149 983 2 0.5564 6.05885172279505 -1.4618717328308335 -5.951838288011826 0 0 0
4147 983 1 -1.1128 5.811039711722955 -2.156837374965609 -6.561628125811677 0 0 0
4453 1085 1 -1.1128 5.056375450856697 -0.2158774967788188 -8.679883634830968 0 0 0
4455 1085 2 0.5564 4.361071835437136 -0.34060754792559333 -9.325814851177363 0 0 0
1349 90 5 -0.08699999999999999 4.210630766783412 2.408211265169243 -11.615713588605345 0 0 0
1347 90 5 -0.271 3.482892473009561 3.3866079132025346 -10.993483177966954 0 0 0
1348 90 4 0.147 2.4278097228126088 3.3045356308758236 -10.994715028580492 0 0 0
1342 90 5 0.296 4.1115312716527175 4.606802120733469 -10.698717800763598 0 0 0
1345 90 4 0.123 2.4408707851467635 5.77583195707095 -10.046111984155234 0 0 0
4240 1014 1 -1.1128 8.957918203853158 -2.3101152553378625 -6.136010932383727 0 0 0
4242 1014 2 0.5564 8.3150499946657 -1.6343809786690477 -5.920754197866442 0 0 0
4241 1014 2 0.5564 9.72437954514669 -2.089470051758227 -5.606780792767881 0 0 0
1343 90 3 -0.439 3.44410941379117 5.544568095203777 -9.711728161836941 0 0 0
4317 1039 2 0.5564 6.51017696571247 1.0093352689361825 -6.096555619488031 0 0 0
4316 1039 2 0.5564 6.328830605818761 0.018266355968467974 -4.966603994627748 0 0 0
4315 1039 1 -1.1128 6.992595179738409 0.3928644808619439 -5.5456761443202245 0 0 0
1747 183 1 -1.1128 1.8515122732439695 -0.5002420077724329 -8.270912396534829 0 0 0
1749 183 2 0.5564 2.271358644485763 -0.06996130079142195 -7.5260503969605965 0 0 0
1748 183 2 0.5564 2.0123036077236027 -1.4333942026791167 -8.13089450008772 0 0 0
1346 90 4 0.123 3.383998956975644 5.158860749554038 -8.730921372653542 0 0 0
3450 750 2 0.5564 6.401971112407817 3.8994732759618036 -9.404806025193453 0 0 0
3448 750 1 -1.1128 7.157441669066793 3.6803575361016403 -8.859384751982113 0 0 0
3449 750 2 0.5564 6.8000088646529795 3.1257300043914102 -8.165942711928839 0 0 0
4161 987 2 0.5564 0.35984520221776845 2.5926623195856324 -5.579598026980712 0 0 0
2639 480 2 0.5564 5.3260306389557375 1.1509329756489917 -7.6556618610237255 0 0 0
2638 480 1 -1.1128 5.714204620645277 1.9927625050172282 -7.417175547285365 0 0 0
2640 480 2 0.5564 5.031783397802051 2.4380162912688697 -6.9148987011128735 0 0 0
4454 1085 2 0.5564 5.8594762409118015 -0.16617148347717972 -9.198333515483393 0 0 0
3736 846 1 -1.1128 7.514423287229521 -1.252364333999443 -10.039673233210259 0 0 0
1337 90 5 -0.184 5.52796343528086 2.62616752923207 -11.953350789456065 0 0 0
401 27 4 0.123 1.3597058882613968 -6.471734954461704 -4.456570733193326 0 0 0
3738 846 2 0.5564 7.122705639035606 -2.0510565925882385 -10.39305660750894 0 0 0
1038 70 5 -0.08699999999999999 4.516493554983006 3.639543764489688 -4.64605926718236 0 0 0
1037 70 5 -0.184 5.812057475076836 3.252453033446645 -4.272908087899403 0 0 0
1602 134 2 0.5564 0.3640790615170087 -12.35619956653951 -5.246204965054133 0 0 0
1366 92 4 0.134 1.330363296047175 -10.108888453888664 19.99180453587132 0 0 -1
3047 616 2 0.5564 0.562115214005236 0.9071329621269172 -11.12395179229752 0 0 0
3198 666 2 0.5564 7.140335308271616 -4.84126487735324 -6.826923193418213 0 0 0
3196 666 1 -1.1128 6.50684865890377 -4.846900842635837 -6.109361529577603 0 0 0
1840 214 1 -1.1128 5.315077524788513 -3.196785332117374 -2.516862137689078 0 0 0
4363 1055 1 -1.1128 4.964700965379214 -1.0539330310245394 -4.040163959066382 0 0 0
4364 1055 2 0.5564 4.941948244205536 -1.944326006197088 -3.689572275881696 0 0 0
3764 855 2 0.5564 2.087007695181851 0.20100723499153184 -5.16620635941269 0 0 0
3763 855 1 -1.1128 2.7623549018963995 -0.16045652797340354 -5.740211436792685 0 0 0
519 35 4 0.123 2.637308624255079 18.373524573931945 8.43847791452287 0 0 0
3765 855 2 0.5564 3.3983421336104014 -0.5551576064217785 -5.143584993004384 0 0 0
1039 70 4 0.123 3.637310867222794 3.1262850083343507 -4.241216765001181 0 0 0
1036 70 4 0.134 5.990872226709182 2.5589082186174963 -3.4815506787138535 0 0 0
2739 513 2 0.5564 0.38519749134443226 -19.74400146687581 -5.893020578196224 0 0 0
4379 1060 2 0.5564 13.831157236650691 13.405449305905675 14.108455856661463 0 0 0
1600 134 1 -1.1128 0.5458159635867663 -12.420558771473896 -6.183787722635818 0 0 0
4383 1061 2 0.5564 7.703470917632879 -4.04011085382428 -11.659049860859406 0 0 1
3933 911 2 0.5564 9.823840521793274 -3.53336213516891 -11.6929042649494 0 0 0
3563 788 2 0.5564 8.11764196754261 0.24619517705559824 -11.054274474731393 0 0 0
3562 788 1 -1.1128 8.457140830505482 1.0727106245401412 -11.397559324723654 0 0 0
895 60 4 0.123 15.94163145041625 4.774077761980749 -8.49246175399458 0 0 1
4427 1076 2 0.5564 8.865450681521606 2.5500877563667 -8.872533100326928 0 0 0
4426 1076 1 -1.1128 9.275248242488473 1.685138373419567 -8.885196802231759 0 0 0
3543 781 2 0.5564 11.496291125697246 -2.222677704169925 -11.547734869869098 0 0 0
1758 186 2 0.5564 9.507832575383823 0.016671776787401296 -4.216134525712236 0 0 0
4428 1076 2 0.5564 9.060152169054978 1.3302757905413634 -9.747773157163355 0 0 0
3541 781 1 -1.1128 10.587114433603785 -1.9611413072563477 -11.693433966494679 0 0 0
3542 781 2 0.5564 10.355381848499093 -1.4546927204662872 -10.91494726612695 0 0 0
3345 715 2 0.5564 10.769239319432833 -2.16152296614125 -8.516674694802482 0 0 0
893 60 3 -0.439 15.853612619642705 5.13915993017919 -9.479618391200704 0 0 1
892 60 5 0.296 14.443760189044665 5.5586950375418445 -9.79360071407215 0 0 1
3737 846 2 0.5564 8.31878486657491 -1.5479373548367246 -9.613210020681318 0 0 0
3259 687 1 -1.1128 9.550565730412433 1.2824562818837453 -5.981511666383997 0 0 0
3260 687 2 0.5564 9.610231135647837 1.6605506656121056 -6.858846558215876 0 0 0
3261 687 2 0.5564 8.644649315796423 0.9815021279316695 -5.910985796092006 0 0 0
3343 715 1 -1.1128 10.481219572046468 -1.4246615251664851 -9.055480397709669 0 0 0
3344 715 2 0.5564 10.223915850188531 -0.7522473536686584 -8.424698494694459 0 0 0
881 59 4 0.123 12.196442308715598 2.748467132169495 -3.8193077372153295 0 0 0
878 59 3 -0.439 12.887415898755055 2.0413946205588793 -3.451233264990329 0 0 0
880 59 4 0.123 12.385289007973729 1.4873979857627657 -2.705994946183525 0 0 0
879 59 4 0.123 13.104714377882113 1.344076694979929 -4.272545806225585 0 0 0
890 60 5 -0.271 13.465561615804193 5.289039503998987 -8.871258371976007 0 0 1
891 60 4 0.147 13.638280103880092 4.585526224818032 -8.037467185872728 0 0 1
896 60 4 0.123 16.186502375839137 4.3578541136955 -10.26426232089967 0 0 1
894 60 4 0.123 16.442891267698432 6.056256511502268 -9.588492436465856 0 0 1
261 18 4 0.147 1.8642527106019446 10.064155878554898 -8.027080429039414 0 0 0
269 18 5 -0.08699999999999999 0.6961643256587938 6.373031327177755 -8.145668724142672 0 0 0
1344 90 4 0.123 3.9639292550486114 6.44638982077425 -9.603473331129779 0 0 0
1340 90 5 -0.271 5.423916724199386 4.809881596057812 -11.100502195344536 0 0 0
1338 90 5 -0.08699999999999999 6.143074910663607 3.7971578967960613 -11.681015080249178 0 0 0
1339 90 4 0.123 7.217093201238435 3.8768144122185415 -11.854701774391799 0 0 0
1341 90 4 0.147 5.960209076669994 5.759600562150251 -10.84123529020686 0 0 0
1041 70 4 0.147 3.378994965028064 4.976928907964242 -5.808001968118075 0 0 0
974 65 5 -0.08699999999999999 0.2785526030534565 -4.218883047501305 18.161371557370117 0 0 -1
1040 70 5 -0.271 4.339468315687233 4.732821320325151 -5.501838556818545 0 0 0
1042 70 5 0.296 5.40610735899242 5.473102119725966 -6.029763534241307 0 0 0
1043 70 3 -0.439 5.1082334704185035 6.742589323650349 -6.807894978680252 0 0 0
3883 895 1 -1.1128 0.41662483862774247 9.275278103612596 13.215702190602746 0 0 0
4094 965 2 0.5564 5.343086564503789 6.323454223870288 -2.5801817899556543 0 0 0
256 18 4 0.134 1.655492519637233 6.162863201638881 -6.27249301567665 0 0 0
262 18 5 0.296 0.7796629816242042 8.611076636042696 -9.102956549490921 0 0 0
257 18 5 -0.184 1.3548786198449494 6.874999173242001 -7.067957402530292 0 0 0
3968 923 2 0.5564 1.9045685029270885 8.555642102106594 -3.429623057248084 0 0 0
1044 70 4 0.123 4.438586790970502 6.5357465520066995 -7.578209827714595 0 0 0
259 18 4 0.123 2.109452870345469 8.47145635565288 -5.961893673760093 0 0 0
258 18 5 -0.08699999999999999 1.7405032116371337 8.174882489655241 -6.903854673310917 0 0 0
260 18 5 -0.271 1.4574566312293966 9.051943631830751 -7.966620309442497 0 0 0
1045 70 4 0.123 4.6509510718259675 7.490127606977991 -6.121236432847883 0 0 0
4054 952 1 -1.1128 2.3457334277580735 10.263739800239971 -4.200719668989038 0 0 0
4055 952 2 0.5564 2.01206498510388 10.847205841290958 -4.882236036176814 0 0 0
500 34 5 -0.271 4.463411678227378 10.497598851499509 -10.25728333561261 0 0 0
4056 952 2 0.5564 3.22169986199547 10.597407058703205 -4.006862310508886 0 0 0
4263 1021 2 0.5564 13.552112701197231 15.186740725986816 17.606557273920274 0 0 0
4093 965 1 -1.1128 6.196931734874594 6.748773350394575 -2.6594525120310797 0 0 0
1046 70 4 0.123 5.943638236389249 7.182738530378704 -7.248917139381312 0 0 0
498 34 5 -0.08699999999999999 4.978424967167638 9.67711470441069 -9.23711495645291 0 0 0
499 34 4 0.123 5.627611313059655 8.908942577794113 -9.677823030306774 0 0 0
496 34 4 0.134 5.503343955114483 9.422116636242244 -7.218554793063878 0 0 0
497 34 5 -0.184 4.987599497300189 10.111101105496298 -7.95405937249701 0 0 0
3071 624 2 0.5564 3.4388482755146796 5.3652905430287525 -2.852464174219341 0 0 0
4287 1029 2 0.5564 7.471021552662828 9.65086208072805 -4.512531170789783 0 0 0
4127 976 2 0.5564 7.239782125023235 11.670869263239364 -7.5563943356808805 0 0 0
502 34 5 0.296 3.8126143585854426 11.68807682877773 -9.799121679288515 0 0 0
509 34 5 -0.08699999999999999 4.369029093556609 11.270465958777255 -7.580809910588697 0 0 0
510 34 4 0.123 4.311241359389962 11.548860660460397 -6.538288535516474 0 0 0
3232 678 1 -1.1128 5.235299004502944 10.338391525019606 -3.3390930373493126 0 -1 0
847 57 5 0.296 0.14113289087048095 -12.952588428266706 -11.607808873726169 0 0 0
3233 678 2 0.5564 5.241195324093769 9.413956285750597 -3.090866436172418 0 -1 0
973 65 4 0.147 0.4585459078428213 -6.257458779799322 18.389088626570153 0 0 -1
3605 802 2 0.5564 1.132444103379642 3.482415967623026 -3.4750357303760273 0 0 0
3876 892 2 0.5564 10.877753794995137 16.717238791662304 15.353124367381879 0 0 0
4020 940 2 0.5564 8.741667177997293 7.154825774424703 -10.66012608870244 0 0 1
900 60 4 0.123 12.861908531759454 7.9911386453937086 -11.43716305902954 0 0 1
886 60 4 0.134 11.104124050960035 7.359891566762358 -9.996470338952605 0 0 1
4494 1098 2 0.5564 7.674983544979367 11.39562016824703 -12.21525236057593 0 0 0
876 59 4 0.147 12.866721773669784 4.6776507392124325 -2.6230491990097238 0 0 0
897 60 5 -0.271 14.256322409766979 6.5575667727113895 -10.786085937906904 0 0 1
889 60 4 0.123 11.350942493134449 5.51345063468516 -8.400993691577682 0 0 1
1049 70 5 -0.08699999999999999 6.890453159077314 3.9442027195559763 -4.84250450640652 0 0 0
899 60 5 -0.08699999999999999 13.058500702754026 7.153200063220951 -10.807508446639272 0 0 1
887 60 5 -0.184 12.045600767369661 6.808410226085085 -9.911527519888296 0 0 1
888 60 5 -0.08699999999999999 12.210045803691486 5.879888827038369 -8.975608146960504 0 0 1
3777 859 2 0.5564 13.650531601774912 9.30052875394093 -7.796172968539166 0 0 1
3241 681 1 -1.1128 10.380803484344236 9.958644752615434 -9.186075853143473 0 0 0
3242 681 2 0.5564 10.564241902369302 9.810328687696009 -10.113752820898268 0 0 0
3776 859 2 0.5564 12.802539819056921 8.133636918461747 -8.255703741576093 0 0 1
1050 70 4 0.123 7.904669343858697 3.8474303101788703 -4.476074406446589 0 0 0
1047 70 5 -0.271 6.685861415268858 5.081706672258426 -5.665372915846599 0 0 0
1048 70 4 0.147 7.436247573834899 5.4799502171209395 -6.323697379681918 0 0 0
3775 859 1 -1.1128 12.74567091914779 8.990512646017377 -7.832901493737786 0 0 1
3534 778 2 0.5564 8.334255788297865 5.358849550308518 -8.868098832400058 0 0 0
3532 778 1 -1.1128 8.762599499431085 6.125769912258661 -9.248344241526535 0 0 0
3533 778 2 0.5564 9.033781000638134 6.6481154934269755 -8.4934618016295 0 0 0
4285 1029 1 -1.1128 7.253157661296523 8.827352990280318 -4.949108631977286 0 0 0
4286 1029 2 0.5564 7.802747041862151 8.818454042236999 -5.7327565891535155 0 0 0
3110 637 2 0.5564 9.96761058860979 8.471209306201423 -6.533476567025675 0 0 0
3109 637 1 -1.1128 9.268451874563977 8.35442225614793 -7.176725886353911 0 0 0
3111 637 2 0.5564 9.402675913311981 9.06126342445334 -7.808066699757063 0 0 0
3297 699 2 0.5564 10.14255071196808 11.58386840983073 -9.861692894940136 0 0 0
3243 681 2 0.5564 11.169163426949659 9.657453991398596 -8.73440719410806 0 0 0
1299 87 4 0.123 15.353407384605788 12.8615093182518 -6.495242201641435 0 -1 0
1300 87 4 0.123 15.558657346326822 12.680466608284526 -4.752154246668272 0 -1 0
1435 96 4 0.123 15.65382889232269 5.685733173093944 -6.484503783394365 0 0 0
1302 87 5 -0.271 12.653920486888941 12.525296378089257 -6.479110032151341 0 -1 0
1297 87 5 0.296 13.4828949187306 12.666247950139368 -5.3757847671043 0 -1 0
1301 87 4 0.123 15.169923372717225 11.287593454347228 -5.608814058737953 0 -1 0
1298 87 3 -0.439 14.99356903982375 12.383144854211904 -5.584560620958911 0 -1 0
1479 99 4 0.123 14.131837664830298 10.395211873365595 -10.723774083389367 0 0 0
1480 99 4 0.123 15.33780989436986 10.969772629385934 -11.800167293805849 0 0 0
3126 642 2 0.5564 7.285977118188723 12.544672126752818 -10.159869849538458 0 0 0
1303 87 4 0.147 13.068409164346722 12.542741490123966 -7.479496162181373 0 -1 0
3372 724 2 0.5564 11.802309658730545 10.0883345624818 -5.736989494016371 0 0 0
3370 724 1 -1.1128 11.301254668567548 9.593679539593197 -5.0885358396391975 0 0 0
1305 87 4 0.123 10.662452415552634 12.142535637491214 -7.169225015651771 0 -1 0
1304 87 5 -0.08699999999999999 11.314012581697089 12.441793189312298 -6.330206877894321 0 -1 0
898 60 4 0.147 15.030545479947628 6.892805405713099 -11.449973376925236 0 0 1
1438 96 4 0.147 13.435890155645728 8.20852541148471 -4.815104087228994 0 0 0
1434 96 4 0.123 13.992998812440648 6.132815317868401 -6.039249582662899 0 0 0
1433 96 3 -0.439 15.022116645558054 6.017539972425189 -5.600191243708411 0 0 0
1436 96 4 0.123 15.03909941947551 5.107535790567764 -4.961097349577528 0 0 0
1427 96 5 -0.184 16.265571243737025 9.480817513834234 -3.4918835806053137 0 0 0
1439 96 5 -0.08699999999999999 14.913756448029696 9.390556849581621 -3.9596395278299545 0 0 0
1437 96 5 -0.271 14.508040640145747 8.334236950555871 -4.721585725100044 0 0 0
1432 96 5 0.296 15.458255717814884 7.347388345001928 -5.023267563551117 0 0 0
1481 99 4 0.123 15.198285478331846 9.213252510847289 -11.48589069211097 0 0 0
1478 99 3 -0.439 15.11846442612768 10.20189303963388 -11.019079970096504 0 0 0
1477 99 5 0.296 15.953332620280813 10.39195372529937 -9.73614756042979 0 0 0
1483 99 4 0.147 15.599954190679043 8.41537712645982 -8.930084564782964 0 0 0
1426 96 4 0.134 16.64881198667505 10.440120393534375 -3.0457841923814706 0 0 0
1428 96 5 -0.08699999999999999 17.124966860568243 8.50063273531112 -3.808621395737469 0 0 0
1429 96 4 0.123 18.142348910886174 8.731693937832636 -3.4830285956262355 0 0 0
1430 96 5 -0.271 16.72814970155226 7.403108882602148 -4.587464923940669 0 0 0
1431 96 4 0.147 17.345060952810226 6.502325991304184 -4.56785555370479 0 0 0
1485 99 4 0.123 17.11874828754434 8.51696902434238 -7.082774352129618 0 0 0
1484 99 5 -0.08699999999999999 16.93950944861071 9.377268969626403 -7.783995121627336 0 0 0
1482 99 5 -0.271 16.15202119736506 9.312501233979846 -8.880012308668165 0 0 0
1440 96 4 0.123 14.202570058136608 10.181690908018515 -3.7809216083354786 0 0 0
506 34 4 0.123 3.1891135771267174 13.713108170144976 -10.498082649797011 0 0 0
3693 831 2 0.5564 5.511296692798134 15.822184810282348 -10.596205922411343 0 -1 0
3691 831 1 -1.1128 6.320635448751295 15.321293020297677 -10.494667586103837 0 -1 0
3400 734 1 -1.1128 4.869677523092063 18.25772281819965 -10.331486162643136 0 0 0
3402 734 2 0.5564 5.760099271508458 18.60652634019051 -10.290048931264472 0 0 0
4459 1087 1 -1.1128 0.8547759246719737 -3.6079549401671556 13.970463611440692 0 0 0
3461 754 2 0.5564 5.901280851933747 15.03096411353072 -6.4955941192230515 0 0 0
1208 81 3 -0.439 7.0255475647776775 19.257612799467225 -4.646186595162949 0 -1 0
1211 81 4 0.123 6.618555870106372 19.684694901086928 -5.549429385389227 0 -1 0
1209 81 4 0.123 8.098629684782141 18.91481368906703 -4.895820595261946 0 -1 0
4349 1050 2 0.5564 7.224949062908883 -19.9323608084931 -11.316515900311936 0 1 0
857 58 5 -0.184 1.3528886800205029 17.27843282400344 -11.064207748905313 0 -1 0
856 58 4 0.134 2.168821842570493 17.646863839923466 -10.444117110282983 0 -1 0
4218 1006 2 0.5564 6.469114931988469 12.670034435993362 -5.085473721171714 0 0 0
4216 1006 1 -1.1128 6.470921944435936 11.807725291338734 -5.5009872317533155 0 0 0
4217 1006 2 0.5564 5.893968161889597 11.275945077842863 -4.952748360454528 0 0 0
508 34 4 0.147 3.5323062400370366 13.06983732620707 -8.291493870367809 0 0 0
507 34 5 -0.271 3.7686654718553867 12.103058436225357 -8.518292400106418 0 0 0
4261 1021 1 -1.1128 12.85420666430132 15.275149107265564 16.95744790450012 0 0 0
1444 97 4 0.123 1.1645136384748025 13.591851439625444 -5.391491608686415 0 -1 0
2464 422 1 -1.1128 4.114827701473155 16.506313359756014 -8.333951734732 0 0 0
2466 422 2 0.5564 3.963700157392419 17.08028110184612 -7.582983478312184 0 0 0
2465 422 2 0.5564 4.048724721436867 17.083758427194535 -9.094490645978942 0 0 0
4355 1052 2 0.5564 2.4997232791653867 17.25380906189487 -5.632486327700531 0 -1 0
4354 1052 1 -1.1128 3.2448313935573725 17.790353992217977 -5.902977068929203 0 -1 0
4356 1052 2 0.5564 3.902782050727142 17.64782744276159 -5.222522113306612 0 -1 0
4250 1017 2 0.5564 3.517952501554163 19.49048797836308 -7.259184405123995 0 -1 0
514 35 4 0.123 0.49367659748447584 -17.370327888679267 6.113585471613623 0 1 0
1449 97 4 0.123 0.42301049275180524 13.61636005987881 -10.372030525331754 0 -1 0
3460 754 1 -1.1128 5.375905433825381 14.528153057731863 -5.87318465507527 0 0 0
1443 97 5 -0.08699999999999999 0.5849355699781994 13.15532785983073 -6.212498278534462 0 -1 0
3086 629 2 0.5564 4.219967869049322 15.817955549486799 -4.315540337839129 0 -1 0
1445 97 5 -0.271 0.7464004204642769 13.502308973368185 -7.508374499702197 0 -1 0
3958 920 1 -1.1128 0.2540236557256304 -4.987439336074709 -9.618082632805201 0 0 0
1446 97 4 0.147 1.495539051141502 14.206391713071211 -7.8175246682524335 0 -1 0
3462 754 2 0.5564 5.053174540059753 13.782356809248615 -6.379015217607 0 0 0
3555 785 2 0.5564 1.0835139999500292 17.300133220483957 -3.804271229304993 0 0 0
3553 785 1 -1.1128 1.3210850524629076 16.62091100523523 -4.43549934413035 0 0 0
4348 1050 1 -1.1128 7.176236094994753 19.40615160433207 -10.626376005412624 0 0 0
4126 976 1 -1.1128 7.704313603914763 11.78840056412462 -8.385024944139131 0 0 0
4128 976 2 0.5564 8.225405322668305 10.991490594258504 -8.483155585516828 0 0 0
4090 964 1 -1.1128 7.17781915119831 15.748354651352193 -3.245272663077252 0 0 0
3554 785 2 0.5564 1.35952341904483 15.81602341298194 -3.9188657575163384 0 0 0
3351 717 2 0.5564 8.367294923360369 17.21076184638689 -7.714425189808361 0 -1 0
3997 933 1 -1.1128 11.529601520332395 19.6609148960564 -5.7496431102279155 0 -1 0
3295 699 1 -1.1128 10.182097608417813 12.38752192129589 -10.380160742533393 0 0 0
3296 699 2 0.5564 9.266507406149918 12.607745437889077 -10.551706765093384 0 0 0
1296 87 4 0.147 13.490224511044566 12.718783432117089 -3.185559657505886 0 -1 0
4401 1067 2 0.5564 6.154881747880468 16.522574734906094 -7.85363811284483 0 -1 0
3125 642 2 0.5564 7.13343363787392 13.871095706885164 -10.873470636145788 0 0 0
3349 717 1 -1.1128 9.049660316153956 17.791101433384153 -7.377060014842419 0 -1 0
4350 1050 2 0.5564 8.081127406791364 19.29747934555401 -10.3338116481016 0 0 0
4066 956 1 -1.1128 10.042214296236333 18.714859506622208 -10.489913568563397 0 0 0
4067 956 2 0.5564 9.880869304615082 17.947978949752994 -11.039544133815623 0 0 0
3124 642 1 -1.1128 7.538847177513245 13.008148966563581 -10.958291909639623 0 0 0
4399 1067 1 -1.1128 6.924047483462004 15.954706153996714 -7.80736508273228 0 -1 0
3428 743 2 0.5564 9.229888074092349 14.670821983221238 -8.843535319650933 0 0 0
3350 717 2 0.5564 9.807408711178596 17.6213124815323 -7.936721434423756 0 -1 0
4400 1067 2 0.5564 6.913371037162594 15.46853968620448 -8.631840689118915 0 -1 0
3886 896 1 -1.1128 11.961962883481217 16.032267508317688 -4.624372279887671 0 0 0
3427 743 1 -1.1128 10.120343313033793 14.835623198275604 -9.153635042457445 0 0 0
3429 743 2 0.5564 10.358987857216315 14.041212918278566 -9.631330468519458 0 0 0
4068 956 2 0.5564 10.656734103305677 18.407484777289273 -9.823491798799616 0 0 0
4386 1062 2 0.5564 11.600208629675897 16.425089469824112 -8.799877643096924 0 0 0
2988 596 2 0.5564 9.162687737001601 16.865612705559943 -5.913370256719046 0 0 0
2986 596 1 -1.1128 9.191855843760043 16.432140942206352 -5.060443963501411 0 0 0
4385 1062 2 0.5564 11.980942879972686 17.375023291096547 -7.6842782540595405 0 0 0
4384 1062 1 -1.1128 11.71216945870224 17.35505612677157 -8.602751857424144 0 0 0
2987 596 2 0.5564 10.121896665606982 16.407635564981568 -4.835376578024979 0 0 0
3887 896 2 0.5564 12.485446180935286 16.604881689103284 -5.185005887220836 0 0 0
3888 896 2 0.5564 11.86997196558197 15.222949038165854 -5.1271377248703 0 0 0
3998 933 2 0.5564 11.372040399753855 19.755752757516067 -4.810275194825964 0 -1 0
4091 964 2 0.5564 7.8355538028410345 15.92538142389247 -3.9177891747164124 0 0 0
3964 922 1 -1.1128 13.196952612615931 17.724858404761022 -6.327412244972673 0 -1 0
3965 922 2 0.5564 12.629386472490841 18.46898167163365 -6.12646154551217 0 -1 0
1295 87 5 -0.271 12.886253685082746 12.836933146691445 -4.092271017817632 0 -1 0
3966 922 2 0.5564 14.066766872438674 18.001807080160855 -6.039394156673871 0 -1 0
1476 99 4 0.147 16.64931726321015 12.362617536893234 -10.271051022044338 0 0 0
1474 99 4 0.123 17.957836840749085 12.611467378930646 -8.271245121119074 0 0 0
1475 99 5 -0.271 16.583480608167715 11.557829169999305 -9.527935817498642 0 0 0
1471 99 4 0.134 18.123085871294187 10.757563761190125 -6.540089728196503 0 0 0
1472 99 5 -0.184 17.579309117920186 10.576534743932928 -7.528176928469288 0 0 0
1473 99 5 -0.08699999999999999 17.396283469029324 11.671498897387728 -8.398122373769898 0 0 0
3432 744 2 0.5564 1.3365099223485395 -16.569880180678535 -0.8024994395890023 0 0 0
3447 749 2 0.5564 7.541849574173353 -14.527378678882917 -5.470851744965578 0 0 0
4036 946 1 -1.1128 2.9651107248679502 -19.49102589541776 -2.667311513133339 0 0 0
3262 688 1 -1.1128 10.273801917037654 13.919156130468249 16.904360061125995 0 0 0
964 65 4 0.123 0.24855346993065935 -1.9412021505693657 -19.264873791829377 0 0 0
3833 878 2 0.5564 1.9814476551438636 -15.683767865750257 1.1595160097689823 0 0 0
3832 878 1 -1.1128 2.4471686628565226 -16.224887569847496 0.5219227291069738 0 0 0
2949 583 2 0.5564 7.232386339956636 -12.20238214406339 -3.9615224356250875 0 0 0
220 15 4 0.123 3.5644058521716846 -15.932223610356868 -1.9009695754703213 0 0 0
1204 81 4 0.123 7.47152093602774 -16.37309453319737 -3.290759018346668 0 0 0
223 15 4 0.147 3.1965939894278117 -13.809902322714251 -0.346438402165786 0 0 0
1203 81 5 -0.08699999999999999 7.354082639944682 -17.423381519714244 -2.973992292144704 0 0 0
1201 81 4 0.134 8.254445743300769 -17.056514521949424 -1.1149829376006783 0 0 0
1202 81 5 -0.184 7.939880421876775 -17.831101951840846 -1.7994963274839746 0 0 0
1214 81 5 -0.08699999999999999 8.088944675167728 -19.151749526470045 -1.517323398463488 0 0 0
585 39 4 0.123 1.7180814970835814 12.148228851869794 -13.30321966501007 0 0 0
4238 1013 2 0.5564 1.7908442215606888 -19.668815927840765 0.32257121682644213 0 1 0
1212 81 5 -0.271 7.762590329713735 19.827859725940364 -2.374715560517036 0 -1 0
4416 1072 2 0.5564 5.531581064837013 -18.95516278837024 -1.2381399516327587 0 1 0
4237 1013 1 -1.1128 2.5931167910889976 -19.24831387616617 0.6320363339523283 0 1 0
4414 1072 1 -1.1128 4.854011333548324 -19.530803938123974 -0.8835015859600116 0 1 0
4415 1072 2 0.5564 4.229949055278824 -19.63757896141394 -1.6013993182802226 0 1 0
3203 668 2 0.5564 1.3005341375364574 -14.572260070500615 3.371318053953048 0 0 0
222 15 5 -0.271 3.3521010916391036 -13.224517078766937 -1.276452931955784 0 0 0
1051 71 4 0.134 8.948313616568848 -18.770237146697436 2.3845376216228287 0 0 0
1052 71 5 -0.184 8.249404906544315 -17.902089295355594 2.318578742425566 0 0 0
1053 71 5 -0.08699999999999999 8.688750158631038 -16.616893990362144 2.386353590771667 0 0 0
3202 668 1 -1.1128 0.7158069743925242 -15.317603994856144 3.23424729355318 0 0 0
218 15 3 -0.439 4.374491686449526 -15.198075867311998 -2.3017340887273843 0 0 0
1063 71 4 0.147 5.142950248573282 -17.15861743288528 1.1031184078686131 0 0 0
1062 71 5 -0.271 6.129557947434498 -17.044781429580752 1.5570118767137862 0 0 0
1064 71 5 -0.08699999999999999 6.956007722692875 -18.070470719082657 1.9856305911504817 0 0 0
1065 71 4 0.123 6.501427908597058 -19.03714780349451 2.190865489722524 0 0 0
219 15 4 0.123 5.3102927803992594 -15.348134287400695 -1.6841219612818403 0 0 0
3834 878 2 0.5564 2.4438822835265466 -17.102495762930815 0.9040547706871137 0 0 0
1057 71 5 0.296 6.639933323896814 -15.800225078319361 1.5659700083804526 0 0 0
221 15 4 0.123 4.632702457306184 -15.612950029937352 -3.253709943183586 0 0 0
217 15 5 0.296 3.9486079241467573 -13.791978670133888 -2.457970692228199 0 0 0
4037 946 2 0.5564 2.4541378102505425 -18.764999567155087 -2.3095067064803896 0 0 0
867 58 5 -0.271 0.5691321973888029 15.84802821780288 -12.839927836575422 0 -1 0
2721 507 2 0.5564 0.7583180381603105 -16.333069448156028 -3.4558754125050655 0 0 0
128 9 3 -0.439 0.7105190173141804 -18.29185744018131 15.621764869394845 0 0 0
3445 749 1 -1.1128 7.785182399571795 -13.814771104467912 -4.879910636259334 0 0 0
3446 749 2 0.5564 8.564769580719258 -13.428038092287357 -5.2785498270424345 0 0 0
2936 579 2 0.5564 10.845731485697117 -17.638546177550452 -5.600459995184286 0 0 0
1215 81 4 0.123 8.501472829909128 -19.421137462038317 -0.5552579841353357 0 0 0
1213 81 4 0.147 7.94052824667215 18.78718280176107 -2.0838277566984873 0 -1 0
1054 71 4 0.123 9.684473524467391 -16.45388422842394 2.8241169982435883 0 0 0
4158 986 2 0.5564 9.452555692154318 -14.903023092684117 -1.1287998382930746 0 0 0
3269 690 2 0.5564 11.019727170284671 -16.461108435426542 -2.9497075425427153 0 0 0
1060 71 4 0.123 5.664737167539724 -14.168529864033776 2.484710163816313 0 0 0
1055 71 5 -0.271 7.929062874223517 -15.576233251461083 2.0557255175555476 0 0 0
1058 71 3 -0.439 5.680108243719436 -14.675646244296184 1.5072413515933847 0 0 0
1056 71 4 0.147 8.226799888262777 -14.64089392077438 2.526277707268684 0 0 0
3270 690 2 0.5564 11.683085999132256 -15.292253290808846 -2.2528374679473058 0 0 0
3268 690 1 -1.1128 11.105734077239564 -16.039199158886518 -2.0948232048115947 0 0 0
3118 640 1 -1.1128 12.288294115961763 -13.786085023196026 -2.8963815471325405 0 0 0
3119 640 2 0.5564 11.693986760855818 -13.609235381394683 -3.6255967530009303 0 0 0
4156 986 1 -1.1128 9.20697973517492 -14.117834998780957 -0.6395106269791772 0 0 0
4157 986 2 0.5564 9.366500050331537 -14.34606414324932 0.2762931470852803 0 0 0
3120 640 2 0.5564 13.148324092572578 -13.881910460923445 -3.3055242574466694 0 0 0
3662 821 2 0.5564 10.130374978694707 -19.753754323879058 -3.01457949371999 0 0 0
3663 821 2 0.5564 11.462892816273527 -19.31852640783131 -2.4428557690360377 0 0 0
3661 821 1 -1.1128 11.060210783654217 -19.683659986683878 -3.230736783209052 0 0 0
1132 76 5 0.296 14.042237336859998 -17.175093101067606 5.1326877167971725 0 1 0
1112 75 5 -0.184 12.696999596927633 -13.96951940546043 0.511728211729943 0 0 0
1137 76 5 -0.271 13.062311893603695 -17.402254824534143 6.169388399585615 0 1 0
1139 76 5 -0.08699999999999999 11.840081540545166 -17.972298481948695 5.895770977076726 0 1 0
1124 75 5 -0.08699999999999999 12.53477377268191 -12.571947090592499 0.3436649228289547 0 0 0
1061 71 4 0.123 6.087764225163654 -13.907968671642534 0.8903048415942441 0 0 0
1136 76 4 0.123 15.091121073360185 -15.726246172835127 6.39768697457289 0 1 0
1127 76 5 -0.184 11.482125016923597 -18.33918620759141 4.617521425142286 0 1 0
1128 76 5 -0.08699999999999999 12.439548621620506 -18.10417217647972 3.6452134035231802 0 1 0
1125 75 4 0.123 11.605578747853574 -12.0713500342715 -0.07887210636104021 0 0 0
4050 950 2 0.5564 9.193027263349498 -12.220729925530543 -1.4278844231789467 0 0 0
1059 71 4 0.123 4.636482392555474 -14.881187456444382 1.2181991332412174 0 0 0
4153 985 1 -1.1128 12.464728324529899 -18.484320505832386 -1.104680344493765 0 0 0
4155 985 2 0.5564 13.392972698423947 -18.53421366700882 -1.3329452803386381 0 0 0
4154 985 2 0.5564 12.192217324659051 -17.614417378750527 -1.3966360513549707 0 0 0
1140 76 4 0.123 11.011768059028002 -17.84080331811626 6.57418642744629 0 1 0
1113 75 5 -0.08699999999999999 13.824529715404408 -14.632642961025706 0.9698155506685775 0 0 0
1111 75 4 0.134 11.992849662302039 -14.58941684510888 -0.07897082118122392 0 0 0
1114 75 4 0.123 13.584334292729585 -15.521881350840257 1.596569482234914 0 0 0
3029 610 2 0.5564 11.770129907321417 19.907141119463322 0.27334982969628924 0 -1 0
3028 610 1 -1.1128 11.684664160298171 18.99443606152278 0.5488437263069837 0 -1 0
3030 610 2 0.5564 12.480170732432612 18.570905702132805 0.22631755183907593 0 -1 0
1138 76 4 0.147 13.209410354159273 -16.80210110882977 7.096792596416005 0 1 0
1185 79 4 0.123 12.905457009088902 -14.804620127699243 4.0478540207218465 0 0 0
1183 79 4 0.147 11.45396661472197 -13.59774532733688 2.677073875892149 0 0 0
1282 86 5 0.296 17.77625288612322 -18.078343168221522 1.0788605669559823 0 1 1
1279 86 4 0.123 16.43797455294819 -15.628752187988402 -0.8617955235456146 0 1 1
1278 86 5 -0.08699999999999999 17.20146425528369 -16.23072125124937 -0.4492567774059508 0 1 1
1281 86 4 0.147 15.914779353341876 -16.951674907808556 1.0502631872214117 0 1 1
1280 86 5 -0.271 16.886106135197906 -17.153002472860607 0.540907391294401 0 1 1
1285 86 4 0.123 16.27338192788333 -18.83537795877118 2.466425772880923 0 1 1
1283 86 3 -0.439 17.20945000988517 -19.114173394776454 1.9784511278218961 0 1 1
1286 86 4 0.123 17.023564777413203 19.910102580515023 1.4932126482473458 0 0 1
1284 86 4 0.123 17.939118933899874 -19.34087374663346 2.7292223030097933 0 1 1
1130 76 5 -0.271 13.683225751200254 -17.558687151715944 3.8253298412709884 0 1 0
1131 76 4 0.147 14.416518923802197 -17.5640182277731 3.0008321956856854 0 1 0
1133 76 3 -0.439 15.233914741589327 -16.238144515951742 5.41356398790023 0 1 0
1277 86 5 -0.184 18.46432708961808 -16.321633646202834 -0.9205172657515025 0 1 1
1290 86 4 0.123 20.400612222662467 -17.059233410130453 -0.7732218231953527 0 1 1
1289 86 5 -0.08699999999999999 19.369685512521404 -17.222876853888234 -0.45740172010780705 0 1 1
1288 86 4 0.147 19.66559282742382 -19.056339608251555 0.7564649211303783 0 1 1
1287 86 5 -0.271 19.078238119062657 -18.149936171258066 0.5727908226314313 0 1 1
1276 86 4 0.134 18.79015720723462 -15.671792358764604 -1.7621483888093972 0 1 1
924 62 4 0.123 15.799105761748567 -16.912051530950226 -5.284289537667964 0 0 0
1135 76 4 0.123 15.322505970711314 -15.498998200443353 4.665858160584743 0 1 0
4329 1043 2 0.5564 8.864983356362336 18.432359471461915 16.951680389337515 0 0 0
4221 1007 2 0.5564 0.05407628340429797 2.575054049174741 -8.429087370547087 0 0 0
216 15 4 0.147 4.762326261876669 -13.641783967855837 -4.376471053972228 0 0 0
3842 881 2 0.5564 5.508028830321463 -4.823075530445711 -3.132182707684354 0 0 0
3875 892 2 0.5564 10.89941715691662 17.745288010693336 14.242025501734993 0 0 0
225 15 4 0.123 2.5483578559849502 -11.49496818682185 -0.5531811969411256 0 0 0
224 15 5 -0.08699999999999999 3.022359242214675 -11.906329113111852 -1.415923957264313 0 0 0
2947 583 1 -1.1128 7.3311980980782945 -11.370986739637088 -3.4975722662305837 0 0 0
2958 586 2 0.5564 3.009951792037733 -8.010669468322481 -4.41151971122402 0 0 0
3843 881 2 0.5564 5.735211073295337 -6.049889979147997 -3.9896264149836203 0 0 0
3841 881 1 -1.1128 5.790738872122738 -5.7364521450735895 -3.086905414497122 0 0 0
403 27 4 0.147 0.7463600547858813 -9.004358019410635 -3.531920967076579 0 0 0
215 15 5 -0.271 4.2441020479862885 -13.081196906040859 -3.598127250531087 0 0 0
2948 583 2 0.5564 7.081779900574336 -11.568791450565689 -2.5948565198896616 0 0 0
2957 586 2 0.5564 3.379135512184265 -7.651362879776038 -5.8350706297641315 0 0 0
2113 305 1 -1.1128 6.241659487731246 -11.406933345780924 2.2305094659636415 0 0 0
2115 305 2 0.5564 6.01267979768588 -11.856087816799377 1.416838526608985 0 0 0
2114 305 2 0.5564 7.114283104831027 -11.048131967910097 2.0691978302995584 0 0 0
4007 936 2 0.5564 4.052289528306149 -7.086536672872772 0.8371619365869228 0 0 0
3782 861 2 0.5564 3.6664331234806804 -6.618979989732794 -2.7434000982688405 0 0 0
3781 861 1 -1.1128 3.406256928926529 -7.538568997441095 -2.6895836695113644 0 0 0
3783 861 2 0.5564 3.6596985482014044 -7.80841873878214 -1.806871777879437 0 0 0
4465 1089 1 -1.1128 6.110598316942569 -11.30913727698213 -1.2339719158608748 0 0 0
211 15 4 0.134 2.8772774965507857 -10.11770696789511 -2.6874047321213252 0 0 0
212 15 5 -0.184 3.170028222538492 -11.135157395074867 -2.598612785827079 0 0 0
4104 968 2 0.5564 3.719271523238968 -8.416109925903443 2.5510794452059944 0 0 0
4103 968 2 0.5564 4.827981593705948 -9.353680138073317 2.1225712738303395 0 0 0
4281 1027 2 0.5564 6.629819542902178 -6.976428556839618 -1.7824493629643667 0 0 0
4102 968 1 -1.1128 4.49009521166635 -8.46857337470079 1.9860039653456776 0 0 0
4466 1089 2 0.5564 5.204154752351769 -11.023905165312447 -1.34901305928554 0 0 0
1229 82 5 -0.08699999999999999 1.3092514042403547 -6.35048203881261 2.2732338785215793 0 0 0
4467 1089 2 0.5564 6.493265481927133 -10.660240612163822 -0.6434375915691196 0 0 0
213 15 5 -0.08699999999999999 3.8355362264924175 -11.739951076817462 -3.712964922845531 0 0 0
3492 764 2 0.5564 5.986349233479157 -3.783620841926719 3.741588461788129 0 0 0
3490 764 1 -1.1128 6.090618799675379 -4.677384538908442 4.068002436699664 0 0 0
2716 506 1 -1.1128 2.69045831496632 -8.919261691865763 3.863803704400835 0 0 0
2718 506 2 0.5564 2.925836645568871 -8.629365534385991 4.745160103647359 0 0 0
2717 506 2 0.5564 1.8509078962552883 -9.365583775066707 3.9741827723877186 0 0 0
4006 936 1 -1.1128 3.737231796577894 -6.778225770875864 -0.01249374937963475 0 0 0
3133 645 1 -1.1128 6.35873052156852 -3.078214148426659 -0.013521373520989316 0 0 0
4008 936 2 0.5564 2.786088721294173 -6.734469628184524 0.08571046624337027 0 0 0
4192 998 1 -1.1128 6.693959668874704 -7.590482962934879 3.5596585810341064 0 0 0
3614 805 2 0.5564 4.045348767591445 -5.151883090117435 0.01195226452908264 0 0 0
3615 805 2 0.5564 4.81678470923217 -3.8599033151426085 0.1779944713136984 0 0 0
4193 998 2 0.5564 6.595340618942221 -6.654359336322276 3.3859388401790653 0 0 0
1217 82 5 -0.184 1.5112672139160257 -5.01561695882049 2.0615880474254014 0 0 0
2491 431 1 -1.1128 0.4756035385688394 -1.12839422607484 -1.0587856672992786 0 0 0
214 15 4 0.123 3.8407363053873502 -11.25486641335024 -4.684692687198669 0 0 0
4259 1020 2 0.5564 4.609806124398021 -5.217310922211145 4.944867541029792 0 0 0
3613 805 1 -1.1128 3.953387511247668 -4.201442298460785 -0.05466031489863137 0 0 0
3255 685 2 0.5564 4.7626893688179335 -11.320182228938899 3.5408158678893544 0 0 0
3254 685 2 0.5564 3.5268388064858915 -10.579636756437049 4.005746990716855 0 0 0
4271 1024 2 0.5564 11.377867152498087 -10.414802348666546 -4.382475313559489 0 0 0
4295 1032 2 0.5564 11.029621480003707 -10.686254540892946 -2.2693562400584693 0 0 0
1123 75 4 0.147 13.74410123470854 -10.801762248966845 0.2686649538264152 0 0 0
1122 75 5 -0.271 13.648089416564494 -11.80808726371911 0.6124353599128538 0 0 0
4294 1032 1 -1.1128 11.644232437600246 -10.119919241581536 -2.7359926038841786 0 0 0
3135 645 2 0.5564 6.683977704511358 -3.899581094647077 0.354992514399687 0 0 0
3491 764 2 0.5564 6.949293980482456 -4.679755280710499 4.490971762273677 0 0 0
3435 745 2 0.5564 7.004177547681656 -8.131153175678083 -3.0992545597347894 0 0 0
3433 745 1 -1.1128 7.369184811359859 -8.67713932198327 -3.795602624279971 0 0 0
3434 745 2 0.5564 7.23189370569062 -9.574975016190274 -3.493486660294923 0 0 0
1117 75 5 0.296 14.89535426648071 -12.453878280222707 0.9703771392355003 0 0 0
1120 75 4 0.123 16.378314185366644 -11.513037975541753 2.3090372845328666 0 0 0
4296 1032 2 0.5564 12.506928352961728 -10.477604206559143 -2.52611394453372 0 0 0
3991 931 1 -1.1128 8.012597046181844 -10.29185495672233 0.4239047826573021 0 0 0
4279 1027 1 -1.1128 6.526300893353239 -7.743289450028336 -1.2190311515939356 0 0 0
3992 931 2 0.5564 8.70409755130439 -10.699523996152395 -0.09750179445437859 0 0 0
3309 703 2 0.5564 7.365589887047365 -6.407501896779542 0.3980223356334188 0 0 0
1118 75 3 -0.439 16.23352352283972 -11.68789482306648 1.2700366824356382 0 0 0
3993 931 2 0.5564 8.209272621303796 -9.35557936483928 0.39326931640643775 0 0 0
2964 588 2 0.5564 7.9879197673463915 -7.536831577680714 2.258027532208066 0 0 0
2962 588 1 -1.1128 8.714783932904615 -7.669112816174397 1.6494209274829217 0 0 0
2963 588 2 0.5564 9.351017074480232 -6.993905228376098 1.885077307740811 0 0 0
4280 1027 2 0.5564 5.658265542044351 -7.639290364951002 -0.8292483296700903 0 0 0
3486 762 2 0.5564 8.786489375340722 -3.8767559712502004 -5.11542219397821 0 0 0
3484 762 1 -1.1128 8.506016735679877 -4.520622241912211 -4.465035268605759 0 0 0
3485 762 2 0.5564 7.682322144796516 -4.8661370343462265 -4.809097176739551 0 0 0
3016 606 1 -1.1128 11.388752331444616 -6.718622418320862 0.11914522943330458 0 0 0
3728 843 2 0.5564 12.282692251384667 -6.789524171438745 -3.11444425943168 0 0 0
3727 843 1 -1.1128 11.799709427376097 -7.314124732913047 -3.7530001635136587 0 0 0
3017 606 2 0.5564 10.72246213784701 -6.967916821438543 -0.5212776711779603 0 0 0
3018 606 2 0.5564 10.984109719574802 -6.013430328873748 0.624318760695087 0 0 0
4049 950 2 0.5564 9.153566322134786 -11.280616819090818 -2.613854543522877 0 0 0
3417 739 2 0.5564 12.022309060318557 -5.6214355352167455 -1.1601553400942912 0 0 0
4048 950 1 -1.1128 9.548448718170686 -11.392019570324445 -1.74904871964577 0 0 0
3840 880 2 0.5564 9.012116029281662 -8.311704944725413 -2.150652500745171 0 0 0
3838 880 1 -1.1128 9.752867416356136 -7.775350642098732 -1.8680870797854598 0 0 0
3729 843 2 0.5564 11.985027027242952 -8.220720218803272 -3.5081045905566057 0 0 0
3839 880 2 0.5564 10.158313946517538 -7.477925142122615 -2.6825703367733023 0 0 0
3340 714 1 -1.1128 12.021861101160791 -3.3136985068721434 2.000905600567377 0 0 0
3342 714 2 0.5564 12.36677167117042 -3.1671768748090052 1.1201105484806677 0 0 0
4478 1093 2 0.5564 9.602556712294401 -5.025184863924043 3.0505762038694755 0 0 0
1121 75 4 0.123 17.131351697583526 -12.153612178628459 0.8495971516325829 0 0 0
4477 1093 1 -1.1128 9.778875047986823 -5.112594646298753 2.1138247717996967 0 0 0
3307 703 1 -1.1128 7.25812717987373 -5.569249702119166 0.847485156290425 0 0 0
3308 703 2 0.5564 8.03893716705073 -5.488843407512527 1.3953011831876787 0 0 0
4479 1093 2 0.5564 10.527188685791543 -4.537035394990408 1.955742463359892 0 0 0
3415 739 1 -1.1128 12.357816346181318 -4.959977616930104 -1.7652504786389713 0 0 0
3416 739 2 0.5564 12.7920522554179 -4.318530380715687 -1.202919226471953 0 0 0
3851 884 2 0.5564 10.279715192335377 -3.760320428245016 -3.86458259142231 0 0 0
1116 75 4 0.147 15.891009134625316 -14.181834716914272 1.6712163133722016 0 0 0
1115 75 5 -0.271 14.95810007869749 -13.842151797863815 1.182892186005284 0 0 0
1119 75 4 0.123 16.283898916293833 -10.684132582915794 0.8502666618258394 0 0 0
3192 664 2 0.5564 1.116590772870674 0.3442129637497483 0.7896932934098789 0 0 0
3197 666 2 0.5564 6.168341961996857 -3.9520024340086084 -6.081043589259569 0 0 0
4365 1055 2 0.5564 4.782717080862675 -0.4940944989510775 -3.285382837297739 0 0 0
1841 214 2 0.5564 5.960456543580801 -2.775733832174577 -1.9490300285146105 0 0 0
4002 934 2 0.5564 5.99534292640969 -1.9141345677904462 1.990899757317261 0 0 0
2978 593 2 0.5564 3.0546860845785426 -1.26761764577131 1.317465642522684 0 0 0
4000 934 1 -1.1128 6.126666226690777 -2.038302664811756 2.9308829040163182 0 0 0
2977 593 1 -1.1128 3.0341338623408416 -1.7365144685856146 0.48323233196920107 0 0 0
2979 593 2 0.5564 3.2407148660675853 -2.6426971560396657 0.7121188213642794 0 0 0
3438 746 2 0.5564 3.591423021456907 0.8426972196435242 -1.4670139594336076 0 0 0
3437 746 2 0.5564 2.9027233584682866 -0.48790846858004977 -1.6839846028116026 0 0 0
3436 746 1 -1.1128 3.6019485069402073 0.06759377470115985 -2.0285613993677494 0 0 0
4186 996 1 -1.1128 6.569841218813302 2.400761900876008 -0.8812055642836112 0 0 0
4187 996 2 0.5564 5.716412444323161 2.791516991018387 -1.0688265234834406 0 0 0
1216 82 4 0.134 2.2360646591574462 -4.523663132011624 2.6872186763108665 0 0 0
3134 645 2 0.5564 7.086770631393637 -2.46500781847935 0.08731255035387492 0 0 0
2492 431 2 0.5564 0.8257313265783159 -1.836121598711731 -0.5177086886795597 0 0 0
4322 1041 2 0.5564 0.23214940583437807 -0.11202576892930292 -7.516109158256128 0 0 0
4001 934 2 0.5564 5.53909025387914 -1.4037586400826805 3.341175684637949 0 0 0
1367 92 5 -0.184 0.22273713126495848 -9.997215695150652 -19.868652301392764 0 0 0
4188 996 2 0.5564 6.483401258085635 2.049637695568975 0.005062884426999457 0 0 0
826 56 4 0.134 5.5354863695153105 2.974329393612378 1.3803088687478526 0 0 0
3190 664 1 -1.1128 0.9876785793801811 1.0722529264526595 1.3976169932436304 0 0 0
3849 883 2 0.5564 5.049376021626204 -0.7761947076360938 0.21823089492589787 0 0 0
2994 598 2 0.5564 8.91063005521769 -0.9030578671985086 3.6327655324936288 0 0 0
3847 883 1 -1.1128 5.450056035310293 -0.10284713320508274 0.7680403013159176 0 0 0
2992 598 1 -1.1128 8.788843156603898 -1.8429201827369002 3.498383343832268 0 0 0
2993 598 2 0.5564 7.845993470693029 -1.9786138965153524 3.5924762700508377 0 0 0
3179 660 2 0.5564 12.680384167391967 13.234393419135175 19.89318220943641 0 0 0
827 56 5 -0.184 5.306786502899835 3.578931565050846 2.269561369960773 0 0 0
1150 77 4 0.123 0.47598089626857415 0.09889593709193446 10.78406538544326 0 0 0
4425 1075 2 0.5564 2.6699031824791675 0.49848345085781937 2.7408680112322825 0 0 0
4423 1075 1 -1.1128 3.3493967767208654 -0.163279037735669 2.86967298851059 0 0 0
4424 1075 2 0.5564 3.237231947105048 -0.44911352645127 3.776287200977366 0 0 0
3191 664 2 0.5564 0.6476817113074022 1.7822674315419975 0.8530866699283985 0 0 0
3115 639 1 -1.1128 9.322453360641381 12.733993373417908 18.997383043145344 0 0 0
875 59 5 -0.271 13.818166146913828 4.16820054634131 -2.357792699889939 0 0 0
877 59 5 0.296 14.052444464107836 2.8260658926932414 -2.8136592583761604 0 0 0
3341 714 2 0.5564 12.239773424001443 -2.5142126963830185 2.4800386185482655 0 0 0
4003 935 1 -1.1128 8.90017304516989 -4.4448310190629465 4.714796747643709 0 0 0
1756 186 1 -1.1128 9.434583805774757 -0.45953533421672876 -3.3890352495446625 0 0 0
1757 186 2 0.5564 9.643465577295355 -1.3659983314938144 -3.614701023073658 0 0 0
882 59 5 -0.271 15.211298905489766 2.136259471701163 -2.3201318809847558 0 0 0
3162 654 2 0.5564 12.701945367022681 -1.915464727191856 -0.5280475718360906 0 0 0
3160 654 1 -1.1128 13.428105446960291 -2.499362077939785 -0.3089878565520297 0 0 0
3852 884 2 0.5564 11.562928502613035 -3.3155536675961583 -3.195672088913802 0 0 0
3354 718 2 0.5564 10.89037157201049 -0.4112278731403234 -1.598972345193536 0 0 0
3352 718 1 -1.1128 11.017777845333995 -1.0972038105859343 -0.9436583125358413 0 0 0
3353 718 2 0.5564 10.229082795538902 -1.0615335903749754 -0.4024378618847591 0 0 0
3474 758 2 0.5564 8.474878650870599 -1.2811515363130692 1.5032399914112897 0 0 0
3850 884 1 -1.1128 10.95356255823311 -3.081206587371517 -3.895662363515666 0 0 0
3848 883 2 0.5564 4.714795187153823 0.2955422564778144 1.2337754045849698 0 0 0
4004 935 2 0.5564 9.057142014660972 -3.551621122611811 4.408580052747645 0 0 0
3364 722 1 -1.1128 9.323287425721619 1.368901401646705 -1.439859275102502 0 0 0
3366 722 2 0.5564 9.256745191275288 0.5811330900109085 -1.9795119694151744 0 0 0
3473 758 2 0.5564 7.339481931352046 -0.6006736001236511 0.7685841368275268 0 0 0
4073 958 2 0.5564 10.85455203795996 1.3160689312606237 2.269633171966262 0 0 0
3472 758 1 -1.1128 8.086017822263614 -1.1844452130112082 0.6339489102551753 0 0 0
4105 969 1 -1.1128 10.39824198920871 3.9076070186095944 -1.6534511250396704 0 0 0
4106 969 2 0.5564 10.271743594618677 2.98251698505982 -1.8642553963833801 0 0 0
4074 958 2 0.5564 11.772957599760263 1.8592219009784887 1.195663327831023 0 0 0
1248 84 5 -0.08699999999999999 15.004235256028485 1.6068970639980529 3.314223628812093 0 0 0
3365 722 2 0.5564 8.466616202514533 1.788209835287649 -1.520646999730504 0 0 0
3915 905 2 0.5564 9.122572908894691 1.4226013575550818 0.5057988599163188 0 0 0
1251 84 4 0.147 15.541334073162973 1.602000493073231 1.261118450311043 0 0 0
1250 84 5 -0.271 15.498344413864894 1.0290326373532304 2.152209849432666 0 0 0
4107 969 2 0.5564 9.512424482098046 4.268259842602345 -1.6148661974151308 0 0 0
3144 648 2 0.5564 13.249224610999516 3.5115258428723592 0.3030983944641862 0 0 0
3913 905 1 -1.1128 9.086374960268492 1.7009263745381524 1.4209254828714195 0 0 0
3143 648 2 0.5564 11.944805953667824 3.6588963357623 -0.4510031148855005 0 0 0
1253 84 3 -0.439 16.482713281378338 -0.9250385832750698 0.8758045469464889 0 0 0
1256 84 4 0.123 15.72816266822567 -0.6900935831290429 0.18815617563077752 0 0 0
3914 905 2 0.5564 9.153356043543283 2.6550811352293002 1.3844006956966992 0 0 0
3142 648 1 -1.1128 12.300177301498033 3.5225900965250707 0.42726999256596493 0 0 0
883 59 4 0.147 15.189110797639321 1.0452668946805441 -2.513842191405984 0 0 0
4072 958 1 -1.1128 11.76716622378809 1.3119053535963183 1.9809294585223498 0 0 0
1249 84 4 0.123 14.158602952050293 2.3156873242815337 3.2700854681700235 0 0 0
884 59 5 -0.08699999999999999 16.19000639241649 2.82305899730006 -1.5331560909891802 0 0 0
3161 654 2 0.5564 13.795042732841452 -2.1343532521607287 0.4962185729931582 0 0 0
1254 84 4 0.123 17.46258815550846 -0.7430687723200927 0.46179098343430164 0 0 0
885 59 4 0.123 17.078764764004614 2.326838770977962 -1.183424372687962 0 0 0
1255 84 4 0.123 16.360722997136453 -1.968834103554091 1.100428488482504 0 0 0
1252 84 5 0.296 16.264040809842328 -0.1666266026123063 2.166498203184058 0 0 0
951 64 4 0.147 18.13847662889369 7.841565421343266 1.3788071473692922 0 0 0
872 59 5 -0.184 15.921543250113361 4.136281751289208 -1.1272211114478248 0 0 0
955 64 4 0.123 19.299088922922017 4.8130740983561395 3.2456451233694024 0 0 0
956 64 4 0.123 19.53303755598273 5.675941701057329 1.7557979934813566 0 0 0
953 64 3 -0.439 19.200713515514504 5.7793562395270435 2.7875090209169175 0 0 0
954 64 4 0.123 19.8036859179973 6.524941993692777 3.3579707358048148 0 0 0
1000 67 4 0.123 0.9320655910240707 2.815302059821923 3.762674242784853 0 0 0
4057 953 1 -1.1128 0.22392784942055527 -0.17818212392379176 -4.397269616186791 0 0 0
1382 93 5 -0.184 1.063604258688966 18.870549318493612 13.602041494185222 0 0 0
4095 965 2 0.5564 6.356023425476209 6.793771856137387 -3.6022656102327053 0 0 0
2760 520 2 0.5564 0.3430662522638641 15.578618325571535 0.5551035940918136 0 0 0
3497 766 2 0.5564 0.43117916553859803 -12.068386471175359 12.090043596531187 0 0 0
970 65 4 0.123 0.5541162581675576 -6.621334833442884 -18.122877131845296 0 0 0
3072 624 2 0.5564 3.3751877671247943 6.0066492496119785 -1.4826096380791245 0 0 0
3969 923 2 0.5564 2.0320183204442475 7.1998868855938305 -2.7681253128916317 0 0 0
3967 923 1 -1.1128 1.5212490443833337 8.00905206015586 -2.7436658611731084 0 0 0
4275 1025 2 0.5564 3.1979029615113297 3.379063401695381 -1.518241321306819 0 0 0
4273 1025 1 -1.1128 3.9367133059093984 3.306183682350268 -0.9140231069378486 0 0 0
1660 154 1 -1.1128 2.992774545258194 6.330267557252037 0.35734694587734595 0 0 0
1662 154 2 0.5564 2.2273375316018367 6.373431672984954 0.9304742178043354 0 0 0
1661 154 2 0.5564 3.164902746239922 7.240893396964005 0.11783850213953652 0 0 0
3604 802 1 -1.1128 1.7271881006313532 3.7510994635859416 -2.774806743262414 0 0 0
3606 802 2 0.5564 1.207887381408602 3.6705352324603036 -1.974764204218228 0 0 0
4343 1048 2 0.5564 0.011898337331753606 9.813262083843663 0.5346256357958655 0 -1 0
158 11 3 -0.439 0.8855193314217834 6.598764680346125 -13.351694250516225 0 0 0
4358 1053 2 0.5564 5.427732779225385 9.35704877103347 -0.1564583310898248 0 0 0
3971 924 2 0.5564 3.0579415756175488 8.496166851940066 -1.4793651939730537 0 0 0
3970 924 1 -1.1128 3.4870680353006254 8.70549457564174 -0.6497484455231894 0 0 0
3972 924 2 0.5564 2.9487123993529205 9.399641727163369 -0.2695318304034151 0 0 0
2863 555 1 -1.1128 2.2334920043904587 11.492931439772125 -0.344305792913883 0 0 0
4359 1053 2 0.5564 6.179961904627501 10.6360919637536 0.14369998388285316 0 0 0
4357 1053 1 -1.1128 6.0433837743412155 9.74497857732069 0.46540670826206687 0 0 0
3795 865 2 0.5564 7.630264470750281 8.079838723461688 1.1177745064751838 0 0 0
2480 427 2 0.5564 1.5724207900361713 9.545246155847174 2.817848462644714 0 0 0
2479 427 1 -1.1128 2.2686112114925394 10.100084605460415 3.1695656731177797 0 0 0
2481 427 2 0.5564 2.029177051258583 10.986341769260186 2.8985466142652196 0 0 0
4274 1025 2 0.5564 3.8754067583703873 4.08761094044139 -0.3646191245204947 0 0 0
3654 818 2 0.5564 4.95771878467881 10.21237855495534 1.9084410427120537 0 0 0
3793 865 1 -1.1128 8.255825349010633 7.457224077045627 1.4882556157596778 0 0 0
3652 818 1 -1.1128 4.808356796130125 10.685503919631111 2.7270222637302286 0 0 0
3653 818 2 0.5564 3.8581676060825543 10.67230010675672 2.8419047690062667 0 0 0
830 56 5 -0.271 5.361035014080647 5.717819133061445 3.3970665154054926 0 0 0
829 56 4 0.123 5.233855805536532 5.401804674045002 1.2962940896437982 0 0 0
828 56 5 -0.08699999999999999 5.4383411817845335 4.959214027308843 2.2154712395904985 0 0 0
831 56 4 0.147 5.663578227802751 6.761317938667329 3.291995475807805 0 0 0
845 57 5 -0.271 0.307031560402823 -12.200001432443992 -12.752081172499864 0 0 0
3070 624 1 -1.1128 3.5830401232064446 6.195158747142913 -2.397756299929896 0 0 0
3794 865 2 0.5564 9.113879390040292 7.81168429829352 1.2551611350735812 0 0 0
998 67 3 -0.439 0.19227574156946017 3.6463617105496735 3.570193993825273 0 0 0
999 67 4 0.123 0.25528299064652943 3.8544395318201428 2.5163385974546473 0 0 0
997 67 5 0.296 0.47161938435922257 4.957296218686533 4.394153599743394 0 0 0
161 11 4 0.123 0.8455119688497301 5.602772841243972 -12.935196069716955 0 0 0
3453 751 2 0.5564 0.2453148971389063 3.5255070033353317 13.173390438248575 0 0 0
3481 761 1 -1.1128 0.42443286933770324 6.817052179630379 1.5380186801122533 0 0 0
3430 744 1 -1.1128 0.8139164866596746 -16.67620818887919 -1.5973719428974194 0 0 0
160 11 4 0.123 1.1421102433820354 7.230875514352874 -12.495757759589466 0 0 0
1487 100 5 -0.184 9.783233734409427 10.996665040386057 0.9212937520163942 0 0 0
873 59 5 -0.08699999999999999 14.687911152103245 4.788172104018318 -1.4577194074579014 0 0 0
874 59 4 0.123 14.493958896667037 5.801556383844566 -1.036102137957016 0 0 0
1489 100 4 0.123 10.219185125610792 9.290889491444341 -0.3570355324788849 0 0 0
1488 100 5 -0.08699999999999999 10.587580853228767 9.99937199296681 0.4404540422867937 0 0 0
2459 420 2 0.5564 9.947416279332895 8.802302934112102 -3.887832415965487 0 0 0
2458 420 1 -1.1128 9.457120491407267 8.179413639600982 -3.3513152116095926 0 0 0
4230 1010 2 0.5564 7.401484751729608 4.043305409812769 -1.1040927712567008 0 0 0
4228 1010 1 -1.1128 7.899322624711424 4.738529990385376 -1.534269568222473 0 0 0
2460 420 2 0.5564 8.542554328017351 8.443004725227201 -3.4529039102736454 0 0 0
4229 1010 2 0.5564 7.268209216550009 5.448679827467735 -1.6509524985012158 0 0 0
3371 724 2 0.5564 11.648517782485143 9.883436260214982 -4.244923836698726 0 0 0
3508 770 1 -1.1128 10.916150021660739 6.607232774337211 -1.5923393050266728 0 0 0
3509 770 2 0.5564 10.421639971633759 7.110233165881949 -2.239395862367243 0 0 0
3510 770 2 0.5564 10.83937602013735 5.699005162439204 -1.8846748820727854 0 0 0
1491 100 4 0.147 12.537468728837366 9.141896091069048 0.4275204359549393 0 0 0
1490 100 5 -0.271 11.848047648373884 9.876841283295414 0.9930529033653807 0 0 0
4236 1012 2 0.5564 11.29234035817969 6.296415209669048 0.16487042637173585 0 0 0
4234 1012 1 -1.1128 11.227612621456107 6.143010667050903 1.1074780955221288 0 0 0
4235 1012 2 0.5564 11.657629048794622 5.29869447753162 1.24330109504483 0 0 0
4450 1084 1 -1.1128 9.04666800929139 4.436671501577817 1.5664218311330809 0 0 0
4452 1084 2 0.5564 9.890766643434938 4.816513567996401 1.322599470754929 0 0 0
4451 1084 2 0.5564 8.47750991011111 5.191864160771178 1.7146612921552162 0 0 0
1497 100 5 -0.271 11.373653519848988 11.630074632272862 2.605888570051555 0 0 0
1498 100 4 0.147 11.761271070104327 12.469775822174643 3.215071602217193 0 0 0
1499 100 5 -0.08699999999999999 10.118712090008803 11.800342793338023 2.0353962085622417 0 0 0
1495 100 4 0.123 14.386955388097538 10.716939522501134 2.35124863848996 0 0 0
1496 100 4 0.123 13.573946928038847 10.794410507353987 3.845900710596083 0 0 0
1493 100 3 -0.439 13.538060752778184 10.38708827797903 2.858835437898683 0 0 0
1492 100 5 0.296 12.25295134220936 10.686695226308839 2.081987943912127 0 0 0
1494 100 4 0.123 13.649196620122527 9.3226409046601 3.015810598704159 0 0 0
1292 87 5 -0.184 10.761539927747243 12.65192234321814 -5.09489288173443 0 -1 0
4076 959 2 0.5564 8.858017465332198 7.819453566556747 3.088843822869558 0 0 0
949 64 4 0.123 15.698456042016831 7.705271942488255 0.3891556692089704 0 0 0
948 64 5 -0.08699999999999999 16.03017706463005 7.194900164466166 1.2755872683792788 0 0 0
871 59 4 0.134 16.714587553521252 4.719538996810752 -0.6028096467827595 0 0 0
946 64 4 0.134 14.064126283003526 6.395168292338983 1.4741871702824987 0 0 0
957 64 5 -0.271 16.723404612370167 5.322031844489424 3.228464053810109 0 0 0
959 64 5 -0.08699999999999999 15.419258843666304 5.401517238008461 2.8291799753563853 0 0 0
960 64 4 0.123 14.790472439174414 4.5042040001999615 3.0342312502294395 0 0 0
947 64 5 -0.184 15.107458202261133 6.339931406731623 1.8469326685357417 0 0 0
958 64 4 0.147 17.08879365150022 4.48000572452881 3.8999491074754773 0 0 0
950 64 5 -0.271 17.372980442602984 7.108994592370935 1.6439890137423803 0 0 0
952 64 5 0.296 17.69914477957235 6.1496509832261745 2.632505222366566 0 0 0
159 11 4 0.123 1.611456510526893 6.604795878462337 -14.213208879805725 0 0 0
130 9 4 0.123 0.4612701695108418 -18.73259608844221 14.659597184068218 0 0 0
1395 93 4 0.123 0.4654913779473534 17.78003527392046 15.490863714815188 0 0 0
131 9 4 0.123 1.063630209560841 -17.331094046047653 15.348667017732033 0 0 0
267 18 5 -0.271 0.3781287827064947 7.261076434516264 -9.148740071779615 0 0 0
3108 636 2 0.5564 1.2077005067462816 19.319389567835398 2.3651860359585397 0 -1 0
3007 603 1 -1.1128 6.157453857080224 11.96900701162283 -0.9513504658994132 0 0 0
3008 603 2 0.5564 6.937280408582199 12.523935144103447 -0.9638839526780101 0 0 0
3085 629 1 -1.1128 4.4092757911316305 16.601161056335748 -3.798835919508283 0 -1 0
3087 629 2 0.5564 5.291960584190631 16.45630240472819 -3.4580791177629195 0 -1 0
3234 678 2 0.5564 5.536397249267145 10.799094295129496 -2.55594258415999 0 -1 0
1885 229 1 -1.1128 0.048510392227090686 -18.00649134040727 2.0431474864193384 0 0 0
3531 777 2 0.5564 5.611195578567808 18.81940473695415 0.055445521883619245 0 -1 0
2864 555 2 0.5564 2.983157126698583 12.046177945256735 -0.5637422161845208 0 0 0
3014 605 2 0.5564 3.466767214716501 13.637782066820645 -2.196088476842626 0 0 0
3013 605 1 -1.1128 4.0423304114192256 13.563854023499543 -1.4348437915504408 0 0 0
3465 755 2 0.5564 2.5389859275433917 15.547920346347148 0.1843132648644631 0 0 0
3009 603 2 0.5564 5.426061781691081 12.581000952708042 -1.0335753332407946 0 0 0
4038 946 2 0.5564 2.6467112844301504 19.737498120484965 -2.1986128456617364 0 -1 0
2865 555 2 0.5564 1.917162124944548 11.837580758255998 0.49078946247776567 0 0 0
3015 605 2 0.5564 3.83215023323767 14.329244878295597 -0.899836339853768 0 0 0
3463 755 1 -1.1128 1.9465461215455289 15.588119583769291 -0.5664402926529425 0 0 0
4239 1013 2 0.5564 3.2968631110535824 -19.706923611840384 0.17306977374298507 0 1 0
1500 100 4 0.123 9.37091955620256 12.534018803747252 2.443554633494631 0 0 0
3862 888 1 -1.1128 3.4717158098508385 17.543162579698077 -1.5576668831493392 0 0 0
3529 777 1 -1.1128 5.640600947532038 17.90574398030604 0.3393313620708875 0 -1 0
3530 777 2 0.5564 4.967627389412757 17.84326751344078 1.0171477930888888 0 -1 0
3864 888 2 0.5564 4.312696503075277 17.561240214601092 -1.100877541700572 0 0 0
3985 929 1 -1.1128 3.904095472608764 17.485824940288545 2.3145743354765345 0 0 0
3987 929 2 0.5564 4.137998775088725 17.58847668442602 3.237062086877563 0 0 0
2138 313 2 0.5564 1.5036976021978887 14.525796609709642 -1.8977376465199824 0 0 0
2137 313 1 -1.1128 1.480356810091379 14.074929554942699 -2.7417791004359 0 0 0
2139 313 2 0.5564 0.6718725074406275 13.563044342906615 -2.7181462505023894 0 0 0
3464 755 2 0.5564 2.360094392851267 16.209699070090934 -1.165480025524548 0 0 0
3383 728 2 0.5564 7.2025337089017825 16.682983144038577 0.8804176476092822 0 0 0
2274 358 2 0.5564 3.2512855971731964 15.719379556087183 2.0242899486705794 0 0 0
2272 358 1 -1.1128 3.0329271442099337 14.80578553268682 1.8401774823841206 0 0 0
2273 358 2 0.5564 3.7920552257056257 14.310805783093175 2.148319569513145 0 0 0
4436 1079 2 0.5564 2.054740431916671 13.436736499186686 2.2332905596270294 0 0 0
4435 1079 1 -1.1128 1.5920229157738661 12.599487192301716 2.199556747743728 0 0 0
4437 1079 2 0.5564 0.7459960918735477 12.776109105885167 2.610987369432289 0 0 0
3863 888 2 0.5564 3.6806666896155584 17.215069327383354 -2.4322675039667527 0 0 0
3986 929 2 0.5564 3.0217773259098686 17.851062061524072 2.248632201341656 0 0 0
4029 943 2 0.5564 7.870555088548321 14.658888647550043 -0.26664095575443225 0 0 0
3106 636 1 -1.1128 1.3613245956084623 18.505063706362993 1.8861193750303527 0 -1 0
3117 639 2 0.5564 8.654322734535784 12.988037917844219 19.634010638806565 0 0 0
4177 993 1 -1.1128 4.990588911344772 13.614751210712784 3.027040950333875 0 0 0
582 39 5 -0.271 0.6362169029936434 11.102294240045559 -14.858856306876303 0 0 0
4211 1004 2 0.5564 11.670631058077587 -19.737049244704455 15.787739380350306 0 1 0
1126 76 4 0.134 10.419945872017951 -18.49158285500907 4.35702916171851 0 1 0
1486 100 4 0.134 8.863993391220308 11.153216419033686 0.3386155099948541 0 0 0
1294 87 4 0.123 11.093207094431769 12.961497399973737 -2.9440276317420406 0 -1 0
1293 87 5 -0.08699999999999999 11.49549485905316 12.89723438429176 -3.9266502429706134 0 -1 0
3382 728 1 -1.1128 7.998810689451447 16.187380179470697 1.0716047551279386 0 0 0
3384 728 2 0.5564 8.652092569130497 16.854626468651116 1.28193080590274 0 0 0
3199 667 1 -1.1128 7.733149013754244 15.744156015768406 3.921207279821251 0 -1 0
3200 667 2 0.5564 7.7820621744409095 15.674229138243295 2.967818814413635 0 -1 0
3201 667 2 0.5564 7.810180540925528 16.681854640487817 4.097329871074353 0 -1 0
1291 87 4 0.134 9.708315868389006 12.346136470652429 -4.964170184786971 0 -1 0
3627 809 2 0.5564 10.232736571841974 18.728635537709277 1.4852828573462171 0 -1 0
3626 809 2 0.5564 9.43303071790143 18.627313727876484 2.766727188340719 0 -1 0
3066 622 2 0.5564 9.354084039333229 16.553723484389657 -2.4899095975277574 0 -1 0
3625 809 1 -1.1128 9.453089352856802 18.31937623245372 1.8606344982085568 0 -1 0
3064 622 1 -1.1128 10.163983295100396 16.612410873343567 -1.983105050001137 0 -1 0
3065 622 2 0.5564 10.549322285876128 17.449330948968583 -2.242547648996148 0 -1 0
4028 943 2 0.5564 8.908055322280696 13.786514237385495 -0.9407709203538153 0 0 0
4027 943 1 -1.1128 8.011920039791775 14.108826260345026 -1.0371466691158169 0 0 0
4092 964 2 0.5564 7.670328756519859 15.352697840180364 -2.5261608474145936 0 0 0
3272 691 2 0.5564 11.09004983325042 14.142396510707194 -0.018391194129599445 0 0 0
3271 691 1 -1.1128 10.950547867174844 14.162014503190132 -0.9651679140740757 0 0 0
3273 691 2 0.5564 10.931766686294743 15.09326628634314 -1.1857335905899762 0 0 0
3599 800 2 0.5564 10.557333591961912 14.598799827343095 3.5483211341854064 0 0 0
3598 800 1 -1.1128 10.308418948893138 14.530887815110889 4.4700918646390075 0 0 0
3600 800 2 0.5564 9.351481312037329 14.511171881371844 4.459439548795684 0 0 0
3826 876 1 -1.1128 9.148537213836537 18.908682567877158 4.609944091559327 0 -1 0
1129 76 4 0.123 12.12141587010803 -18.369088090825056 2.6007752046501014 0 1 0
4010 937 2 0.5564 1.6464526211694848 -14.183240173805586 6.89133634413455 0 0 0
4406 1069 2 0.5564 3.90376346561083 -18.009858906195888 8.485698824132738 0 0 0
4407 1069 2 0.5564 3.2795742392412364 -18.470230152134715 9.785830041631513 0 0 0
4405 1069 1 -1.1128 3.520978815969079 -17.68195003017156 9.299445325052254 0 0 0
1618 140 1 -1.1128 4.935746027653649 -18.163239739278286 6.850767406049393 0 0 0
2173 325 1 -1.1128 5.258359437206198 -17.256184728251114 11.399694696446607 0 0 0
2175 325 2 0.5564 5.059928691013965 -16.443253717321333 11.864452950077487 0 0 0
2174 325 2 0.5564 4.634596371676394 -17.27608512233886 10.67391549538974 0 0 0
4430 1077 2 0.5564 7.595358460935996 -17.93421217113718 8.56429288219652 0 0 0
525 35 4 0.123 3.062694780726898 -19.87671969696626 3.932531064493498 0 1 0
512 35 5 -0.184 1.7512478625181704 -18.5414730421822 4.964943428400851 0 1 0
524 35 5 -0.08699999999999999 2.3999676088049258 -19.80119524375432 4.80467939796192 0 1 0
511 35 4 0.134 1.81805309666218 -17.800442208271896 4.1433887535742855 0 1 0
4011 937 2 0.5564 1.5123238707868818 -13.433232269330174 5.583134187103685 0 0 0
4009 937 1 -1.1128 1.0730110250255134 -13.577990347037183 6.421156328380581 0 0 0
2997 599 2 0.5564 3.2428819009478316 -14.656352122985016 8.343587167242188 0 0 0
2996 599 2 0.5564 2.630884497378976 -16.014518865669377 8.073888430919933 0 0 0
2995 599 1 -1.1128 2.626615135753096 -15.107890095688633 7.766906537719348 0 0 0
4040 947 2 0.5564 6.72023156910921 -14.821762787057537 7.86012911041171 0 0 0
4039 947 1 -1.1128 6.533463746845387 -15.301539740199246 8.667076206691776 0 0 0
4041 947 2 0.5564 5.66005539700296 -15.006714295795765 8.924889428646134 0 0 0
4152 984 2 0.5564 4.302856972579152 -12.887008637846844 10.066733593357709 0 0 0
3359 720 2 0.5564 3.5039147037910605 -15.559590484406685 5.729517492044604 0 0 0
3360 720 2 0.5564 4.213029118379581 -16.892509678832425 5.840772934316614 0 0 0
3358 720 1 -1.1128 4.164454133666594 -16.103700549917317 5.30072447332143 0 0 0
4151 984 2 0.5564 4.28214496753444 -12.951282384175487 8.554339848613276 0 0 0
4150 984 1 -1.1128 4.430332409177024 -13.488147709805997 9.332830647111752 0 0 0
589 40 4 0.123 0.5678649200119026 -14.556458122327967 11.271630863322228 0 0 0
3525 775 2 0.5564 6.883019032201817 19.806287205295348 5.594071856910191 0 0 0
3523 775 1 -1.1128 6.181858396059484 19.25916999654706 5.9480045116742515 0 0 0
4429 1077 1 -1.1128 8.048735159934147 -17.610778844684525 7.785786452570003 0 0 0
3524 775 2 0.5564 6.512261736390849 18.96499048609224 6.796841126416609 0 0 0
3938 913 2 0.5564 5.977678840552176 -15.831087891411613 4.900261591659221 0 0 0
3904 902 1 -1.1128 1.7925173983067957 -12.658491986786453 3.6207312195731616 0 0 0
3905 902 2 0.5564 1.273679380469598 -11.891457919961267 3.8630071407087616 0 0 0
3906 902 2 0.5564 2.697533234978734 -12.401570359326023 3.7972794141225608 0 0 0
4070 957 2 0.5564 1.657811245186649 -12.432088024680876 7.478994455822642 0 0 0
3585 795 2 0.5564 7.109204877922846 -17.503228652450137 11.326518066596893 0 0 0
1707 169 2 0.5564 7.480330089643048 -12.212838853005126 12.01938962377878 0 1 0
3443 748 2 0.5564 0.8212602360044771 -11.746062289131181 9.564428738719062 0 0 0
3702 834 2 0.5564 6.879098699591347 -13.530375546625065 5.679648859614836 0 0 0
3700 834 1 -1.1128 6.903163801150991 -13.158642486857087 6.561389856465187 0 0 0
3701 834 2 0.5564 6.020168360828743 -12.816884470036142 6.701932723264756 0 0 0
2846 549 2 0.5564 7.459020978092593 -14.720121273514797 10.260182612500875 0 0 0
2847 549 2 0.5564 8.092129006790714 -15.711711000491903 11.21297808066616 0 0 0
3939 913 2 0.5564 7.018755868612312 -15.537996779910037 3.8409452062896916 0 0 0
3937 913 1 -1.1128 6.881859273448429 -15.537565707150867 4.788305194835923 0 0 0
4431 1077 2 0.5564 7.720741775942685 -16.718987494838846 7.670199395974567 0 0 0
2845 549 1 -1.1128 8.059235776762293 -14.778282548732097 11.003547470214526 0 0 0
1134 76 4 0.123 16.16787492726586 -16.85614867415294 5.467616977515368 0 1 0
1174 79 4 0.123 10.72036193344099 -12.969087348888346 7.422677984726327 0 0 0
1173 79 5 -0.08699999999999999 10.94948477507554 -13.175060592322259 6.347487344536761 0 0 0
1171 79 4 0.134 12.566491913445256 -14.66188860296381 6.542917550151096 0 0 0
1172 79 5 -0.184 11.89924146814981 -14.140405451099307 5.869859728279774 0 0 0
3298 700 1 -1.1128 8.04854137009476 -18.664487413488338 5.302412888518139 0 0 0
3299 700 2 0.5564 7.659624313920496 -17.936889389859715 4.817050770629425 0 0 0
3300 700 2 0.5564 8.163694353463596 -18.326276072938253 6.190435826322961 0 0 0
4031 944 2 0.5564 11.774590348025155 19.478801239320276 9.50221899099913 0 -1 0
1184 79 5 -0.08699999999999999 12.042221431313525 -14.297169097705053 4.515129495077429 0 0 0
1329 89 4 0.123 10.466654705424817 -16.29373006828798 10.68197577807456 0 0 0
1333 89 4 0.147 13.09120798934354 -18.6712279554817 9.100227310562229 0 0 0
1327 89 5 0.296 12.2876263281129 -17.471427588536145 10.758234622351617 0 0 0
1326 89 4 0.147 11.781398180427846 -16.462691996939277 12.539898106714897 0 0 0
1330 89 4 0.123 11.609676289826298 -15.907000960959259 9.427293281877308 0 0 0
1331 89 4 0.123 10.677282177663052 -17.299111867565543 9.221422115468746 0 0 0
1328 89 3 -0.439 11.18514900972242 -16.71044086701606 9.996012952222065 0 0 0
4496 1099 2 0.5564 9.114823945562007 -13.097367822576958 11.080199398547462 0 0 0
1332 89 5 -0.271 12.985229421481874 -18.544743157463607 10.219013129357771 0 0 0
1334 89 5 -0.08699999999999999 13.879664024965251 -19.284142158494934 10.979846787650809 0 0 0
1325 89 5 -0.271 12.521780167264344 -17.10045734992611 12.032531465705917 0 0 0
1182 79 5 -0.271 11.235689409627335 -13.595601008465348 3.6816528035647123 0 0 0
3657 819 2 0.5564 9.448268437546275 19.973286526288863 9.456028895031846 0 0 0
1176 79 4 0.147 9.48131002732501 -11.61638022375233 5.825500948950008 0 0 0
1175 79 5 -0.271 10.142475114938346 -12.452818238121022 5.530630264253912 0 0 0
1177 79 5 0.296 10.272905647877293 -12.675029174459025 4.16542996445225 0 0 0
1241 83 4 0.123 14.658617573807474 -11.233776245887226 5.655175111123941 0 0 0
4032 944 2 0.5564 11.181638868974478 18.64685304284944 8.385005524477705 0 -1 0
4030 944 1 -1.1128 11.056439436119955 18.87728271751663 9.305580914256945 0 -1 0
3828 876 2 0.5564 9.130353532360958 19.82615255826787 4.882249048256373 0 -1 0
1240 83 4 0.123 15.653382804498092 -12.512716822896936 4.953947040837376 0 0 0
1238 83 3 -0.439 15.483508253320112 -11.92356388539136 5.8277042500305996 0 0 0
1243 83 4 0.147 13.31231220537342 -12.103238012899473 7.296107169612038 0 0 0
1245 83 4 0.123 12.975674739871039 -13.548428669844514 9.328070613918506 0 0 0
1306 88 4 0.134 14.24402805986936 -19.87287311301441 7.255473065474881 0 0 0
1233 83 5 -0.08699999999999999 16.141537563242476 -14.320669968941413 8.598972823582342 0 0 0
1234 83 4 0.123 16.910663399515062 -14.99963540793323 9.027178208307218 0 0 0
1309 88 4 0.123 16.219568628798896 19.642966015889744 8.698295187235406 0 -1 0
1232 83 5 -0.184 14.944238264902392 -14.337556960560384 9.268030666348109 0 0 0
1231 83 4 0.134 14.856519644455942 -14.86604181595182 10.211832980296215 0 0 0
1236 83 4 0.147 17.358925490352505 -13.461193891752844 7.003047767658466 0 0 0
1235 83 5 -0.271 16.405841366454148 -13.50538105463105 7.494128116990307 0 0 0
1244 83 5 -0.08699999999999999 13.955035772469719 -13.498500791015852 8.84570390879341 0 0 0
1242 83 5 -0.271 14.13427254840925 -12.686952156332296 7.7114225916275645 0 0 0
1237 83 5 0.296 15.340459800590988 -12.709308861276586 7.053704012814251 0 0 0
1307 88 5 -0.184 14.821403953888437 19.226804187163246 7.0543321277229 0 -1 0
4189 997 1 -1.1128 0.45307210658211977 -10.378382818665193 4.4563647989149535 0 0 0
4190 997 2 0.5564 0.34673812429735024 -10.081508428050096 5.360129439005971 0 0 0
513 35 5 -0.08699999999999999 0.8763336369207457 -18.39101699000008 6.03972053930468 0 1 0
4260 1020 2 0.5564 4.66771499832579 -4.9790297876698935 6.438776449965337 0 0 0
1230 82 4 0.123 1.7931721766895938 -6.823316948970911 3.1223954164675702 0 0 0
4258 1020 1 -1.1128 4.056866057350338 -5.1583602224312886 5.723978560000558 0 0 0
3248 683 2 0.5564 0.9205363917689016 -7.42470682364199 11.038798067788157 0 0 0
3253 685 1 -1.1128 4.036962430405491 -11.374243130460389 4.1626113772382585 0 0 0
4194 998 2 0.5564 5.899896156078029 -7.986204023546438 3.20035394458681 0 0 0
4071 957 2 0.5564 2.7085068797830814 -11.552894929284774 8.123163182879138 0 0 0
3325 709 1 -1.1128 0.8016374140938423 -9.239112984852637 6.9969572905359 0 0 0
1998 266 2 0.5564 6.7394372204448025 -9.021614877888645 6.606010823050314 0 0 0
1996 266 1 -1.1128 6.283957679349062 -8.192689464166373 6.458861814623674 0 0 0
1997 266 2 0.5564 6.612068533070895 -7.885281508487434 5.613832028063871 0 0 0
4069 957 1 -1.1128 1.7702477444678861 -11.742123924547966 8.132859434764006 0 0 0
3559 787 1 -1.1128 4.424814364963352 -11.579522277207767 7.0783431492496 0 0 0
3561 787 2 0.5564 5.050633672321517 -10.902559949306085 7.335838875540211 0 0 0
4196 999 2 0.5564 2.9766852022396044 -6.309311442476803 10.29958041421213 0 0 0
3560 787 2 0.5564 4.212614408069075 -11.376183695993209 6.167378588177305 0 0 0
3327 709 2 0.5564 1.4668819264840418 -8.55474078190168 6.924044523657725 0 0 0
4445 1082 2 0.5564 2.5487812730304116 -8.794395948731282 10.103951866990954 0 0 0
4444 1082 1 -1.1128 2.850886406950881 -9.700762091940625 10.045090809931926 0 0 0
4446 1082 2 0.5564 2.187717152416804 -10.205807980511999 10.515587336678465 0 0 0
3095 632 2 0.5564 7.141042280831405 -11.679836926280824 7.368969679744458 0 0 0
3094 632 1 -1.1128 7.058516674013614 -10.753141560319284 7.5940406538420975 0 0 0
3096 632 2 0.5564 7.6115113414819175 -10.643902402463228 8.367665525422307 0 0 0
3821 874 2 0.5564 5.783088816064736 -6.983837812232594 9.529411900163462 0 0 0
3786 862 2 0.5564 3.1285868994421815 -5.052640699090961 12.096716332881428 0 0 0
3326 709 2 0.5564 1.1860095126272776 -9.885286035927892 7.58936788798229 0 0 0
3760 854 1 -1.1128 3.2067117315261213 -7.597728226138944 6.501818818530262 0 0 0
3762 854 2 0.5564 4.062675641946745 -8.017903097540403 6.585548557237867 0 0 0
3488 763 2 0.5564 8.745749621757572 -9.082631172805913 10.478812744031082 0 0 0
4195 999 1 -1.1128 3.7743466788851823 -5.817298857474596 10.494238176526533 0 0 0
4197 999 2 0.5564 3.741051384327081 -5.063436254574033 9.90532873784576 0 0 0
3820 874 1 -1.1128 6.662423574258975 -6.937210318661447 9.154141345972683 0 0 0
3822 874 2 0.5564 6.5640767038391 -7.286060632984386 8.268216357037103 0 0 0
3761 854 2 0.5564 3.4067350296220757 -6.675563345446811 6.3410877908263785 0 0 0
3784 862 1 -1.1128 3.044048102123502 -4.783910777707233 13.011521903536611 0 0 0
3487 763 1 -1.1128 8.805378032484326 -9.69183599919343 9.742914878160342 0 0 0
3247 683 1 -1.1128 1.3580311141690122 -7.085144864481039 10.25807552199437 0 0 0
3479 760 2 0.5564 4.626500385658599 -9.719848393941465 11.09202074157248 0 0 0
3593 798 2 0.5564 7.3862541572140055 -7.624888838294745 10.858668301727155 0 0 0
3592 798 1 -1.1128 7.547834663960418 -8.004325952789548 11.722468644391661 0 0 0
3249 683 2 0.5564 0.6773344612445514 -7.078843294051333 9.585138543625009 0 0 0
966 65 4 0.147 0.8687836519900379 -4.0310041749756635 -17.935005292261604 0 0 0
1179 79 4 0.123 9.59600655616411 -11.996424777715227 2.111182152922092 0 0 0
1178 79 3 -0.439 9.298798782822711 -11.989852677826967 3.1475668829370007 0 0 0
1180 79 4 0.123 8.34488363315218 -12.512017419972523 3.2077173629008007 0 0 0
1181 79 4 0.123 9.165230467821164 -10.946650901799742 3.4840494908904747 0 0 0
3489 763 2 0.5564 8.904220028365863 -10.552072581244612 10.150903981745834 0 0 0
1194 80 4 0.123 11.36789505501694 -8.196588569941602 11.938351788991202 0 0 0
3024 608 2 0.5564 6.592446876391605 -5.239773477014635 8.104074709532435 0 0 0
3022 608 1 -1.1128 6.1949306427748585 -4.518724411277435 7.615914021482675 0 0 0
903 61 5 -0.08699999999999999 11.163186299562424 -7.608463410100443 8.099630853584951 0 0 -1
904 61 4 0.123 10.601606719545691 -7.609159996893004 9.035065324302995 0 0 -1
912 61 5 -0.271 12.390527152179713 -7.370772091747857 5.61161871589299 0 0 -1
1198 80 4 0.147 10.709654714709345 -9.517443515050857 14.056873757383391 0 0 0
907 61 5 0.296 11.025655611080616 -7.65754964895481 5.68217313833345 0 0 -1
906 61 4 0.147 9.393206476416978 -7.62742284347101 6.914953613711525 0 0 -1
905 61 5 -0.271 10.440827650100225 -7.7356718879883966 6.9207086939522835 0 0 -1
4495 1099 1 -1.1128 9.148270091835718 -12.163011207511444 11.285359879841948 0 0 0
908 61 3 -0.439 10.19483884504446 -8.076062641164627 4.422195489857002 0 0 -1
911 61 4 0.123 9.169542955947687 -7.9315358319926785 4.623456944552178 0 0 -1
909 61 4 0.123 10.507842261685198 -7.499007601498371 3.5319560933375915 0 0 -1
3023 608 2 0.5564 5.630334202748146 -4.080383145055238 8.252561170702531 0 0 0
913 61 4 0.147 12.83626811852366 -7.177924364618094 4.64448766790577 0 0 -1
910 61 4 0.123 10.3013856993738 -9.133181224878289 4.22231870078694 0 0 -1
915 61 4 0.123 14.224049148507875 -7.042999134163386 6.700113981317267 0 0 -1
914 61 5 -0.08699999999999999 13.141841730433097 -7.204061462745501 6.798001996201146 0 0 -1
902 61 5 -0.184 12.489243314955159 -7.384787634894654 8.038408798260928 0 0 -1
4497 1099 2 0.5564 9.871755274045539 -12.079441152345247 11.906501552160218 0 0 0
1094 73 5 -0.08699999999999999 7.888899814070777 -4.081779625762152 10.77050381161959 0 0 0
1092 73 5 -0.271 9.285273678224357 -4.050622499947303 10.712412133805909 0 0 0
901 61 4 0.134 13.142166819931193 -7.517652702349476 8.903196840069306 0 0 -1
1239 83 4 0.123 16.39678509058256 -11.325007701195235 5.955092568574325 0 0 0
4170 990 2 0.5564 7.3973651806228755 14.806584338413387 16.77302262709825 0 0 0
840 56 4 0.123 5.033615297848404 1.8733647526402235 3.5248537357861665 0 0 0
4309 1037 1 -1.1128 3.0449318406259116 -0.47062579380017705 5.465344603253617 0 0 0
3165 655 2 0.5564 11.933547510123764 10.948013621371421 16.747899253804132 0 0 -1
839 56 5 -0.08699999999999999 5.062137994097992 2.9849194506049197 3.5346486869685885 0 0 0
3706 836 1 -1.1128 3.777523895163103 -3.436559062123526 8.880491966404504 0 0 0
3708 836 2 0.5564 3.7757085821344902 -2.7846440038405476 9.581373747145538 0 0 0
3707 836 2 0.5564 3.1454444960703087 -3.104996223471348 8.242703952398694 0 0 0
1601 134 2 0.5564 0.5135132917335731 -13.35878543442079 -6.3706542433506925 0 0 0
3648 816 2 0.5564 2.833525707883592 -3.5720040705968623 5.943873778979821 0 0 0
3646 816 1 -1.1128 2.308875962896414 -2.964682159538424 6.465538976762161 0 0 0
3647 816 2 0.5564 1.4450620703299188 -3.374215368109977 6.51391195583655 0 0 0
4311 1037 2 0.5564 2.7104502946982665 -1.3070429551045695 5.789011445314441 0 0 0
1141 77 4 0.134 1.7286480819924248 4.81336036530815 7.5940043148107454 0 0 0
1154 77 5 -0.08699999999999999 0.7347811158246861 3.7541564152032394 9.154625929665507 0 0 0
1142 77 5 -0.184 1.449273419902131 3.8593635257659185 7.980352056156003 0 0 0
4310 1037 2 0.5564 3.848420879120138 -0.3241316646792699 5.964520582576652 0 0 0
1147 77 5 0.296 0.9003437452697445 1.3241804717311751 9.04845041494348 0 0 0
1143 77 5 -0.08699999999999999 1.8830552322975995 2.7189265784666947 7.329115363212585 0 0 0
1144 77 4 0.123 2.253947175050692 2.884163379705144 6.332058315230228 0 0 0
1145 77 5 -0.271 1.6471052993616064 1.4339824531354095 7.84788960821257 0 0 0
2885 562 2 0.5564 0.9661244873302576 3.8099132294730755 16.265350237074855 0 0 0
1146 77 4 0.147 2.269547440290335 0.5853819897866211 7.4861724002727925 0 0 0
3807 869 2 0.5564 4.298773633011339 0.6413663914856418 8.569757105909357 0 0 0
3806 869 2 0.5564 3.6975992501283708 1.898681322856219 9.161063511884489 0 0 0
3407 736 2 0.5564 3.112057584725282 -1.610868175814402 11.113945977488141 0 0 0
3408 736 2 0.5564 3.7880933458490587 -0.44544767072490277 10.423536056550251 0 0 0
3789 863 2 0.5564 0.740484277428896 -3.2774100384563 10.709894744101595 0 0 0
3787 863 1 -1.1128 1.286340531345242 -2.6002901456100753 11.109621435823302 0 0 0
3788 863 2 0.5564 0.6650569867204157 -1.9351773981349962 11.40603942589929 0 0 0
3805 869 1 -1.1128 4.208059841188482 1.1226361557737277 9.392181650710162 0 0 0
1152 77 5 -0.271 0.41793593114402144 2.4991909418139944 9.706107084234214 0 0 0
3406 736 1 -1.1128 3.934275687564543 -1.3505045802307274 10.698735160461228 0 0 0
3093 631 2 0.5564 5.532096876621459 1.1459769039895875 7.183731179912395 0 0 0
2984 595 2 0.5564 5.833009270437752 1.4088189981687038 10.075048158148537 0 0 0
3091 631 1 -1.1128 5.195010134509444 0.29304303582261676 6.909672426565871 0 0 0
3423 741 2 0.5564 3.9728436108028244 3.3395303782054566 11.49091615544525 0 0 0
3421 741 1 -1.1128 3.7399241954138067 3.8894207802278804 10.74285138589021 0 0 0
1148 77 3 -0.439 0.6697858129958498 -0.015199751440288189 9.685976633328815 0 0 0
1084 73 4 0.123 7.214498327879933 -1.055828854556458 9.508116308163755 0 0 0
1083 73 5 -0.08699999999999999 7.855287808614316 -1.9567562350766765 9.74167265229711 0 0 0
2985 595 2 0.5564 6.479015867920586 2.12164547403519 11.24400025932884 0 0 0
1082 73 5 -0.184 7.1663009526331 -3.043904881072132 10.29590948864129 0 0 0
1081 73 4 0.134 6.091990323539744 -3.1016193216018824 10.377111149204374 0 0 0
2983 595 1 -1.1128 6.684856630094376 1.6663330011437087 10.42757393770243 0 0 0
838 56 4 0.147 4.849310287431441 3.275567858928561 5.646576722869636 0 0 0
3422 741 2 0.5564 2.9710861559889548 4.379040828198918 11.035070631680474 0 0 0
4458 1086 2 0.5564 5.082141885831943 4.541023150554107 9.701783492262601 0 0 0
3513 771 2 0.5564 7.5486451593630415 -19.4602220422951 -19.80043838876714 0 0 1
3752 851 2 0.5564 13.983495335795153 -0.28672986522682015 3.121880464133395 0 0 0
3751 851 1 -1.1128 13.192207911468376 -0.8180697773554799 3.0337107853523753 0 0 0
4005 935 2 0.5564 9.305636678686731 -4.476200818752341 5.58131102749251 0 0 0
3092 631 2 0.5564 5.977704382087886 -0.2281333617139024 6.730796224364536 0 0 0
1086 73 4 0.147 9.700477536464998 -1.1808398733041883 9.06830893758881 0 0 0
1085 73 5 -0.271 9.24084107872038 -1.9260654327284457 9.685391208944019 0 0 0
3753 851 2 0.5564 12.571038065425574 -0.24976570020655606 2.5782875813403825 0 0 0
3403 735 1 -1.1128 9.934405264589223 -0.05005873618998991 6.804410708878106 0 0 0
3276 692 2 0.5564 9.295136509259446 1.3285835097776642 4.490648950095462 0 0 0
3404 735 2 0.5564 10.55443602096648 -0.20554780175057255 6.091938415903397 0 0 0
3274 692 1 -1.1128 9.477711396932893 0.6086576242394613 3.886823661505983 0 0 0
3275 692 2 0.5564 9.26669242098182 0.9611789480775259 3.022282600906247 0 0 0
3889 897 1 -1.1128 8.753460279977219 4.501693642542916 7.157990375634433 0 0 0
3405 735 2 0.5564 10.367187097555284 0.596108850177454 7.362442045155831 0 0 0
3891 897 2 0.5564 8.30695674217913 3.6631071029398785 7.274776187034674 0 0 0
3596 799 2 0.5564 8.417514461843838 -0.954154000933622 6.649589635580802 0 0 0
3595 799 1 -1.1128 7.539925006493861 -1.3355756991775078 6.625381208439301 0 0 0
3597 799 2 0.5564 7.567105630142119 -2.0413778055734637 7.271397012904024 0 0 0
1470 98 4 0.123 15.624295003374094 1.4526121888256658 7.474617529062584 0 0 0
1087 73 5 0.296 10.025249192638642 -3.000249359479634 10.117335560225653 0 0 0
1088 73 3 -0.439 11.490394437702845 -3.246351214338002 9.782667538491788 0 0 0
1089 73 4 0.123 11.676749688862882 -2.9148244424429084 8.733907537468317 0 0 0
1090 73 4 0.123 12.072242381925705 -2.626932893836477 10.464481705568966 0 0 0
4290 1030 2 0.5564 12.14398712687231 2.0200011585719952 9.198658267869083 0 0 0
4288 1030 1 -1.1128 11.206064408501305 1.838843357629748 9.259606379307364 0 0 0
4289 1030 2 0.5564 10.8672228259863 2.5203931073753316 9.840044280559436 0 0 0
1091 73 4 0.123 11.651126486453084 -4.360214413922885 9.951542713402317 0 0 0
4017 939 2 0.5564 8.940575754096328 -0.3611344002604352 12.741326296210538 0 0 -1
1469 98 5 -0.08699999999999999 14.991357628557564 1.1319230884993916 8.325031373741224 0 0 0
1456 98 4 0.134 14.591439685576583 -0.7982086445359352 7.477326127957418 0 0 0
3237 679 2 0.5564 8.915171270842661 3.9875157629507405 3.506373837792473 0 0 0
1457 98 5 -0.184 14.580216625668585 -0.21783449016400547 8.373344275574544 0 0 0
1458 98 5 -0.08699999999999999 14.236619301245126 -0.8419768024369841 9.554325292699948 0 0 0
3035 612 2 0.5564 6.402853211562052 3.544869825010371 8.20738669150094 0 0 0
1468 98 4 0.147 15.299365627829902 2.964948343293243 9.580221884143372 0 0 0
3034 612 1 -1.1128 6.639335544756832 2.6713400679627366 7.89553138688952 0 0 0
3036 612 2 0.5564 6.854119779541539 2.182821930705078 8.690169433037713 0 0 0
1467 98 5 -0.271 14.983254169868134 1.9055472785471077 9.542080961352239 0 0 0
1459 98 4 0.123 14.293206867904447 -1.9333279601344788 9.570594600445393 0 0 0
1462 98 5 0.296 14.554396280508014 1.2343976605564517 10.739943362129894 0 0 0
1460 98 5 -0.271 14.169513953129675 -0.15390622712020816 10.742620506444768 0 0 0
1461 98 4 0.147 13.603223823828293 -0.6583060378804924 11.55149455304436 0 0 0
3890 897 2 0.5564 9.075339078525644 4.478741237710759 6.256824985561842 0 0 0
3075 625 2 0.5564 8.958396790970864 4.535380705518189 9.293158835626446 0 0 0
3877 893 1 -1.1128 7.47536161649761 5.977611406460609 11.88400059753965 0 0 0
1259 84 5 -0.08699999999999999 16.239769448131483 -0.1307617104027733 4.565538877664225 0 0 0
1257 84 5 -0.271 16.63129795576338 -0.7363328473535279 3.3519089427752826 0 0 0
1258 84 4 0.147 17.466488072184124 -1.462882216018037 3.290803207753825 0 0 0
1260 84 4 0.123 16.936265872549583 -0.3878559989862934 5.408447622265494 0 0 0
1246 84 4 0.134 15.201574256567179 1.5376485328211345 5.422262679384118 0 0 0
1247 84 5 -0.184 15.406651150640347 1.0247688766866017 4.514728531738832 0 0 0
962 65 5 -0.184 0.08419519670726733 -3.021822308225015 18.853086584067455 0 0 -1
1155 77 4 0.123 0.7079354231949022 4.658292872963237 9.781660087412378 0 0 0
992 67 5 -0.184 0.8646149249249393 7.292579470919947 5.859567106320496 0 0 0
837 56 5 -0.271 5.037563304989062 3.747119418760121 4.6884150962557625 0 0 0
2884 562 1 -1.1128 0.29227831247443403 4.011723064720072 16.91453122837129 0 0 0
832 56 5 0.296 5.218941878603085 5.134006947448305 4.653141256946969 0 0 0
4144 982 1 -1.1128 2.344540374895826 6.307262805479721 10.96628652113801 0 0 0
4159 987 1 -1.1128 0.025915894688366223 2.569359266888463 -4.682837202229917 0 0 0
4146 982 2 0.5564 2.761816923915223 6.146730306950653 11.812656057474415 0 0 0
4145 982 2 0.5564 3.073634728666178 6.4442092478292965 10.3613907497001 0 0 0
996 67 4 0.147 2.514786105683519 5.396231428761968 3.6555713266904983 0 0 0
995 67 5 -0.271 1.6603014833128014 5.775522131798381 4.224551063949546 0 0 0
994 67 4 0.123 2.727970937390411 7.546995704825778 4.81295005268415 0 0 0
993 67 5 -0.08699999999999999 1.8350254033102231 6.904755074438256 4.930723076028412 0 0 0
3302 701 2 0.5564 1.4574721736529814 7.784992518405771 9.564786713666615 0 0 0
3301 701 1 -1.1128 0.7609936348098678 8.393779942680682 9.318763825852464 0 0 0
1384 93 4 0.123 0.9086073990540351 -19.741603124622063 11.994619933073661 0 1 0
3572 791 2 0.5564 1.979546145552793 10.715650557507644 7.8558442910476245 0 0 0
3573 791 2 0.5564 1.9501221150105545 9.740760546827895 9.013695185026743 0 0 0
3571 791 1 -1.1128 2.422801743280653 10.501910862407827 8.676862933830018 0 0 0
3576 792 2 0.5564 6.146141859672654 8.404422615707752 10.59376916824104 0 0 0
4083 961 2 0.5564 1.9719686579942246 10.664675374383132 5.459080000050611 0 0 0
835 56 4 0.123 3.870865329117205 6.194400916435856 6.012655389553449 0 0 0
833 56 3 -0.439 4.948179735973283 5.958381171410803 5.881667576734699 0 0 0
4142 981 2 0.5564 5.763302430785114 10.005510473035525 4.057222927745552 0 0 0
3475 759 1 -1.1128 4.544867966639168 7.422891526367643 9.13882768457782 0 0 0
4176 992 2 0.5564 4.265140194760289 10.752856980785403 9.093930133794286 0 -1 0
4081 961 1 -1.1128 1.485665713788236 11.296033675471666 5.989294967820904 0 0 0
836 56 4 0.123 5.297548766661211 5.41494962523042 6.732946089257097 0 0 0
834 56 4 0.123 5.404156355210948 6.990975526641476 5.722248933658146 0 0 0
3477 759 2 0.5564 5.214154554940639 7.9603586353895945 8.715251938579128 0 0 0
3476 759 2 0.5564 4.958990704624488 6.5670417222821955 9.249531412773328 0 0 0
4174 992 1 -1.1128 5.051503609567241 11.12369722797254 9.494357285165105 0 -1 0
4175 992 2 0.5564 5.77693386089013 10.709974488604244 9.026579312901744 0 -1 0
270 18 4 0.123 0.4512515871525009 5.3523574204076825 -8.30985529575537 0 0 0
4053 951 2 0.5564 2.0683462724192054 11.846249462105337 9.740974933678771 0 0 0
3608 803 2 0.5564 6.030343752634682 9.128017242113874 6.661182580276896 0 0 0
4457 1086 2 0.5564 6.4431724878421 4.912035253755054 10.251183936685246 0 0 0
4456 1086 1 -1.1128 5.919622480768723 4.93024630084516 9.450062499440314 0 0 0
4098 966 2 0.5564 8.064063073709974 11.909346576886932 9.56349428947068 0 0 0
3607 803 1 -1.1128 6.372256969711887 8.64702305094146 7.414821578841373 0 0 0
4051 951 1 -1.1128 1.5115529480010848 12.402926383206424 10.285331289345056 0 0 0
3393 731 2 0.5564 2.4744500137221617 13.032941323085058 12.468056557434473 0 0 0
1096 74 4 0.134 11.949984502115207 2.9697892838778457 6.312058075570037 0 -1 0
1097 74 5 -0.184 12.575026191015102 3.7668963687391557 5.950048299440209 0 -1 0
4143 981 2 0.5564 6.57369110259778 8.758978218783742 4.3423943521469175 0 0 0
1109 74 5 -0.08699999999999999 13.477641296883403 4.189179948630526 6.855135507899459 0 -1 0
1100 74 5 -0.271 12.79542280023876 5.7234213544313715 4.719187229726389 0 -1 0
1098 74 5 -0.08699999999999999 12.268711158660599 4.487220788432927 4.787156656144689 0 -1 0
1099 74 4 0.123 11.659516980435297 4.002114885857868 4.001371727147567 0 -1 0
1102 74 5 0.296 13.72133146886806 6.2025317358683925 5.589439735590251 0 -1 0
4077 959 2 0.5564 9.391645418263147 9.026647499310856 3.830341187579324 0 0 0
4075 959 1 -1.1128 9.184086502488553 8.099186725688366 3.9442151326562267 0 0 0
4141 981 1 -1.1128 6.240787053452269 9.556160250576253 4.754592727881348 0 0 0
3694 832 1 -1.1128 8.1277176117512 7.031388099938271 6.0779217119999105 0 0 0
3696 832 2 0.5564 8.78865026891002 7.172065160098252 5.399976398573702 0 0 0
3695 832 2 0.5564 8.279480487592828 6.135471812780052 6.378810198395202 0 0 0
3373 725 1 -1.1128 9.264700015885655 8.98292764528593 10.614048203541566 0 0 0
3375 725 2 0.5564 8.705276819918227 9.718221617476893 10.363807704628682 0 0 0
3236 679 2 0.5564 7.572144339404453 3.648745691726121 4.117445574553088 0 0 0
3235 679 1 -1.1128 8.512908259629482 3.6143061074740084 4.290676622404154 0 0 0
3074 625 2 0.5564 10.280270711859526 5.143652541981198 9.71095049593265 0 0 0
3073 625 1 -1.1128 9.437827871935712 4.85143057158625 10.058985286732788 0 0 0
4096 966 1 -1.1128 7.813338057232215 11.380293408205032 8.806215246958573 0 0 0
3077 626 2 0.5564 11.100910334404936 8.78239263460284 11.26124044988567 0 -1 0
3609 803 2 0.5564 6.901423057768352 7.946879068733077 7.032704485831045 0 0 0
3278 693 2 0.5564 7.5440938848310894 10.883433850418832 5.481188930785311 0 0 0
3374 725 2 0.5564 9.46586861897105 8.542548280502507 9.788318795472733 0 0 0
3076 626 1 -1.1128 11.91688966425243 8.977778025163195 11.721929142454897 0 -1 0
1101 74 4 0.147 12.690611282826207 6.166133798045873 3.736880013492776 0 -1 0
2976 592 2 0.5564 11.591947927194637 6.089585075896156 7.943236351137318 0 0 0
2974 592 1 -1.1128 11.79831924610642 6.419440415735697 8.81778658714745 0 0 0
4347 1049 2 0.5564 9.067332342210333 7.945139288609103 7.388561126660533 0 -1 0
2975 592 2 0.5564 11.520388414811547 7.3352415650248615 8.800624377928532 0 0 0
4345 1049 1 -1.1128 9.634409931352439 8.413781091345683 8.000957706519165 0 -1 0
4346 1049 2 0.5564 9.281992087505433 9.303505780512568 8.021535454729579 0 -1 0
1105 74 4 0.123 13.54070364788678 8.349070002207414 5.778883353788605 0 -1 0
1103 74 3 -0.439 14.22035576714864 7.515330597643685 5.369856349933697 0 -1 0
3277 693 1 -1.1128 8.166463589490878 11.479982843396735 5.897142158767962 0 0 0
1107 74 5 -0.271 14.124411528468176 5.371786153237185 6.639498594388301 0 -1 0
1104 74 4 0.123 14.375418415290666 7.66491535326335 4.3217252696749275 0 -1 0
3837 879 2 0.5564 12.380537320329667 10.653776285710615 11.439652319896132 0 0 0
3078 626 2 0.5564 12.394670606105977 8.148356581352614 11.726082103376674 0 -1 0
1110 74 4 0.123 14.00508758931366 3.5086802951772498 7.576699488503909 0 -1 0
1108 74 4 0.147 14.94282191473214 5.622042125763355 7.376891742733921 0 -1 0
1106 74 4 0.123 15.1900051257485 7.606611471743537 5.737422116420101 0 -1 0
1218 82 5 -0.08699999999999999 0.662012897647491 -4.407233581040742 1.1138372595486483 0 0 0
3163 655 1 -1.1128 12.196106081748079 11.8324240166042 16.492726652133406 0 0 -1
3107 636 2 0.5564 0.5108700824661422 18.28679265551212 1.5049150672529745 0 -1 0
4178 993 2 0.5564 5.48155021804187 12.806767247194815 2.8775396320595545 0 0 0
4223 1008 2 0.5564 5.814796149645246 16.630965426682028 4.448382541710992 0 -1 0
1619 140 2 0.5564 5.782421449748288 -17.7669122967289 7.056429913639246 0 0 0
3601 801 1 -1.1128 0.2698591090817544 16.401361108945743 4.75172425566392 0 0 0
3603 801 2 0.5564 0.06100247355846763 17.06678866775107 4.096120037728225 0 0 0
3602 801 2 0.5564 1.1917668619403812 16.551583372498165 4.960891947894902 0 0 0
4179 993 2 0.5564 4.450793305760534 13.42889681994707 3.795357749034694 0 0 0
4222 1008 1 -1.1128 5.039935859980606 17.101049021604833 4.756351237824982 0 -1 0
1620 140 2 0.5564 5.138317222120328 -19.080713736298193 6.667906234401538 0 0 0
522 35 5 -0.271 2.289081818904719 19.242516948424942 5.750420862121473 0 0 0
3682 828 1 -1.1128 7.287043800296399 17.404528210640134 10.643165598879609 0 -1 0
3684 828 2 0.5564 7.813784109503416 17.077850579131415 11.372588778473803 0 -1 0
4082 961 2 0.5564 1.9387137614395364 12.127338765124815 5.84818805045589 0 0 0
521 35 4 0.123 1.068063060939018 17.66974962594055 7.956275356065494 0 0 0
517 35 5 0.296 1.4869569660862039 19.45155494465681 6.878358806115491 0 0 0
4059 953 2 0.5564 0.6513342628927337 -0.3045114011048022 -3.5501589565392155 0 0 0
4224 1008 2 0.5564 5.388364318535198 17.809305713323038 5.297832425137378 0 -1 0
2945 582 2 0.5564 0.7068162872783653 15.794576403243624 11.09331667352342 0 0 0
523 35 4 0.147 2.8206554725060053 18.292988635190937 5.643428135435502 0 0 0
3588 796 2 0.5564 2.9232277234908275 14.339888307003049 5.3367600217470335 0 0 0
3683 828 2 0.5564 6.428847439944326 17.58279858116773 11.027808943074131 0 -1 0
518 35 3 -0.439 1.6269881870970508 18.583129848553266 8.111505553771941 0 0 0
3586 796 1 -1.1128 3.2309227614259433 13.441450251998713 5.2169071957216895 0 0 0
3004 602 1 -1.1128 7.200267011812939 17.013734193132187 8.054341964165873 0 -1 0
3005 602 2 0.5564 7.214892387909641 17.1373209173357 9.003417385333512 0 -1 0
3006 602 2 0.5564 7.845973245088201 16.326051599612832 7.891898727876984 0 -1 0
3587 796 2 0.5564 3.8842310756135268 13.317657458118372 5.905453047439153 0 0 0
2944 582 1 -1.1128 0.3738098782682532 15.32564066545328 10.328177549862747 0 0 0
2946 582 2 0.5564 0.7512248988791339 14.449003712637145 10.40096044196785 0 0 0
3552 784 2 0.5564 3.012441347365661 15.875292189207928 6.884042528054162 0 0 0
3551 784 2 0.5564 3.9128680029005203 16.28309633273734 5.737385329729635 0 0 0
3157 653 1 -1.1128 2.861618837458249 14.914970798621962 8.470336763630822 0 0 0
3158 653 2 0.5564 3.181626708517324 15.30876952852335 9.28197043762555 0 0 0
3159 653 2 0.5564 2.07833264834567 14.430555230571509 8.73117398256545 0 0 0
3550 784 1 -1.1128 3.026489077576081 15.979020716587396 5.932583175900678 0 0 0
3951 917 2 0.5564 6.7467158324826695 14.651874062632109 5.629908947584456 0 -1 0
3950 917 2 0.5564 6.452398659975576 13.980318354516044 6.95440336129776 0 -1 0
3989 930 2 0.5564 5.085630983780138 12.287173065621214 8.094607976826984 0 0 0
3990 930 2 0.5564 4.091529224439499 13.42879198144017 8.075552289120205 0 0 0
3988 930 1 -1.1128 4.7645225281620345 13.002177916690158 7.545163466997701 0 0 0
1611 137 2 0.5564 1.192192991180777 16.834788143828252 13.053927128285906 0 0 0
1609 137 1 -1.1128 1.5080813426926325 16.166224104976926 12.44608791352147 0 0 0
3333 711 2 0.5564 9.095863354094654 16.567585560979683 12.922036780153121 0 0 0
3331 711 1 -1.1128 9.673508276974331 17.313377344342367 12.759701372893527 0 0 0
3332 711 2 0.5564 10.274096974124756 17.00820042878892 12.079707201145407 0 0 0
4282 1028 1 -1.1128 10.855865384951308 14.604738105173857 14.08445641525128 0 0 0
2940 580 2 0.5564 11.126655386012452 11.042713918308468 8.392403332717329 0 0 0
2939 580 2 0.5564 11.447421872447215 11.544781366990577 9.784140488589351 0 0 0
1335 89 4 0.123 14.43431381790284 19.90350950857761 10.509660211353605 0 -1 0
4097 966 2 0.5564 7.473978485889528 12.013022102691615 8.173189738431471 0 0 0
3981 927 2 0.5564 9.721154409261532 14.902804201249255 8.375911101659131 0 -1 0
3279 693 2 0.5564 7.706780983920586 12.318759596592932 5.934254153835117 0 0 0
4046 949 2 0.5564 11.152533237463405 15.946811991129364 10.09925180832869 0 0 0
3949 917 1 -1.1128 7.1685936856189665 14.191890355242524 6.355626449853974 0 -1 0
3528 776 2 0.5564 12.871330927363903 12.198498648974692 6.367454430071636 0 0 0
4215 1005 2 0.5564 10.905526533263142 13.039682309575 5.529452432212892 0 -1 0
4045 949 1 -1.1128 11.184985195891132 16.630247403795416 10.768650582447728 0 0 0
4047 949 2 0.5564 11.178588284315639 17.450260321581364 10.274920135672328 0 0 0
3827 876 2 0.5564 9.673383873706817 18.469980371408987 5.279502287641287 0 -1 0
3526 776 1 -1.1128 13.761077373888513 12.545161607134974 6.301062562464652 0 0 0
4213 1005 1 -1.1128 11.03314743168551 12.156687715903571 5.87624526927634 0 -1 0
4214 1005 2 0.5564 10.154254840161403 11.778143514063462 5.898241946072062 0 -1 0
3979 927 1 -1.1128 9.142005145841308 15.37860470762144 7.780569401699675 0 -1 0
3980 927 2 0.5564 8.692048772907455 14.694098112274556 7.2853707118391675 0 -1 0
3224 675 2 0.5564 10.090390520517213 17.06597818818574 7.01931966104387 0 0 0
3975 925 2 0.5564 11.288233586328433 13.664290047026311 9.049526276449777 0 -1 0
3225 675 2 0.5564 11.530509027323426 17.39270941772448 6.685852243047811 0 0 0
3223 675 1 -1.1128 10.640102358248766 17.73655281617106 6.613883608536915 0 0 0
3973 925 1 -1.1128 11.42766198451461 14.60893427015249 8.982901390284864 0 -1 0
3527 776 2 0.5564 14.121430709056844 12.45181586339343 7.182915071567116 0 0 0
3974 925 2 0.5564 11.639722471768636 14.755798511807571 8.061113378270257 0 -1 0
3565 789 1 -1.1128 12.212472385176687 15.013043827378397 6.455508590584426 0 -1 0
3567 789 2 0.5564 11.59233599611157 15.072809108264696 5.728810020524247 0 -1 0
3566 789 2 0.5564 12.727934597393725 14.228769746817022 6.267241469784841 0 -1 0
2938 580 1 -1.1128 10.941211152165174 11.758430410715375 9.000344199777398 0 0 0
1311 88 4 0.147 17.801157520530715 17.87468006305498 7.793863703375707 0 -1 0
1308 88 5 -0.08699999999999999 15.975933628784013 19.009119774471525 7.819363800311523 0 -1 0
1310 88 5 -0.271 16.773195423790995 17.941536243788356 7.3752823828189324 0 -1 0
1314 88 4 0.123 16.891060757752836 15.447573017669486 5.027906966790659 0 -1 0
1318 88 4 0.147 14.963288044188607 16.695995324162876 4.7715968753773925 0 -1 0
1317 88 5 -0.271 15.226622407084966 17.357605239085416 5.61283648139992 0 -1 0
1312 88 5 0.296 16.416733177386647 17.102465288693452 6.317508116388883 0 -1 0
1316 88 4 0.123 17.729822878682356 15.383551415777992 6.5379230660101975 0 -1 0
1313 88 3 -0.439 17.367347062259103 16.08470009048634 5.774365912142337 0 -1 0
1315 88 4 0.123 18.16417404395483 16.5699602869717 5.305290765732012 0 -1 0
1319 88 5 -0.08699999999999999 14.432090173753236 18.451876479355956 5.944550732677788 0 -1 0
1320 88 4 0.123 13.743676350573601 18.87324713822917 5.208956113542481 0 -1 0
2168 323 2 0.5564 5.299878252251195 -13.361175210934817 18.410538168810135 0 0 0
387 26 5 -0.271 0.49182539886860627 -12.293945784546043 16.721152019163714 0 0 0
3498 766 2 0.5564 1.5896046186292592 -12.716012275911579 12.818415995470135 0 0 0
2167 323 1 -1.1128 5.585451990833122 -13.969152057330843 19.092479085587662 0 0 0
2169 323 2 0.5564 6.444657632462113 -13.643096382835164 19.36021986413051 0 0 0
381 26 4 0.147 1.9798703010187328 -14.97634928666025 18.128406084891555 0 0 0
380 26 5 -0.271 1.2097491335255286 -14.200003842540028 18.05295741222026 0 0 0
3900 900 2 0.5564 5.005461743941856 -18.55543146286646 16.898739060097313 0 0 0
3899 900 2 0.5564 3.6381696014610574 -18.145965677149363 17.403461803694164 0 0 0
382 26 5 0.296 1.4777656753080584 -13.210164597809225 17.130020155418784 0 0 0
2774 525 2 0.5564 6.086390308790445 -15.846038828087254 16.30225532766624 0 0 0
586 40 4 0.134 0.6943388125192305 -16.823176804601623 12.308200526026788 0 0 0
3898 900 1 -1.1128 4.418842907816522 -17.802328911666258 16.969071702920093 0 0 0
385 26 4 0.123 3.263855703489118 -14.17270888535485 16.116779027017216 0 0 0
383 26 3 -0.439 2.706685290570582 -13.159607418020231 16.254936661067873 0 0 0
4449 1083 2 0.5564 3.9779932087580274 -18.029258747463714 14.958657811872719 0 0 0
2775 525 2 0.5564 6.845892255948871 -16.327092521288243 15.084208004501587 0 0 0
3520 774 1 -1.1128 5.514290236418775 -14.765639862935908 12.857905744752555 0 0 0
3521 774 2 0.5564 6.194169895263819 -14.187829570447708 12.511307064413224 0 0 0
3522 774 2 0.5564 5.877507592197835 -15.098236002895511 13.67868876206192 0 0 0
1557 119 2 0.5564 5.5757157666502914 -16.968176808084923 18.114070974673336 0 0 0
3583 795 1 -1.1128 8.056126845776893 -17.539051936374793 11.461748726826098 0 0 0
3368 723 2 0.5564 7.213374553476037 -13.770673716047384 15.493398067175738 0 1 0
3584 795 2 0.5564 8.347108829274953 -18.27784667860037 10.927198827274168 0 0 0
1556 119 2 0.5564 6.014906189659647 -15.586656102135045 18.550428097775207 0 0 0
1555 119 1 -1.1128 6.335461256301755 -16.48087533522729 18.432749369908148 0 0 0
3389 730 2 0.5564 6.450575398766982 19.246191776122306 16.764553102382166 0 -1 -1
3388 730 1 -1.1128 5.6420333772565305 19.70635210354409 16.98981760676651 0 -1 -1
3390 730 2 0.5564 5.566422455368118 19.608070958472467 17.93895174372992 0 -1 -1
4448 1083 2 0.5564 5.002021677781972 -17.736156471187794 13.882854888504037 0 0 0
4447 1083 1 -1.1128 4.1299079289001 -18.10724237312315 14.016812649979814 0 0 0
3210 670 2 0.5564 7.877996633821506 -18.513619069173064 14.542491502958182 0 0 0
3208 670 1 -1.1128 7.854515399837194 -17.647959571536664 14.134675243969832 0 0 0
3209 670 2 0.5564 8.036204006146136 -17.813488073587337 13.209569074685316 0 0 0
3305 702 2 0.5564 6.82456614674587 -11.46558353748287 15.598748253884157 0 0 0
3758 853 2 0.5564 4.492212760565904 -13.332631546853705 12.411333290747146 0 0 0
3757 853 1 -1.1128 3.798137924043747 -12.704403623089645 12.211779689039373 0 0 0
1706 169 2 0.5564 7.015574113853821 -11.965900372476963 13.438867799744239 0 1 0
2773 525 1 -1.1128 6.298293413591078 -15.60815011943831 15.399627022085783 0 0 0
386 26 4 0.123 2.451657681377284 -12.797557930923258 15.261686396901881 0 0 0
1705 169 1 -1.1128 6.694113064042069 -12.186838518997437 12.564750609738638 0 1 0
3367 723 1 -1.1128 7.618225346304319 -12.922314794257321 15.312802917944758 0 1 0
3369 723 2 0.5564 8.535561444440434 -13.036426984620078 15.561207023646888 0 1 0
384 26 4 0.123 3.4405877335318142 -12.468796597788666 16.665632148780258 0 0 0
3759 853 2 0.5564 3.9147880647739655 -12.00546226487338 12.855290001347154 0 0 0
4088 963 2 0.5564 4.74859956191226 19.128876475061734 15.23971525736144 0 -1 0
3628 810 1 -1.1128 7.638281624313116 19.12283960632137 13.61656809711687 0 0 0
3630 810 2 0.5564 6.845901551986716 18.758934782958082 13.221677115391827 0 0 0
3164 655 2 0.5564 11.417357437278275 12.36753005862561 16.645840600813028 0 0 -1
3686 829 2 0.5564 11.229725458711508 -18.3323174096356 18.244452033608273 0 0 0
1191 80 4 0.147 14.692270335666963 -8.896075467107739 13.115467029918342 0 0 0
1188 80 5 -0.08699999999999999 14.473912895735614 -10.462894213176426 14.431890428165413 0 0 0
1323 89 5 -0.08699999999999999 13.435044424568213 -17.856094946532306 12.798035702096756 0 0 0
1322 89 5 -0.184 14.0666929084932 -18.931737750034195 12.252063196215861 0 0 0
4212 1004 2 0.5564 11.194994885282005 -18.38279108273397 16.26903996011595 0 1 0
3687 829 2 0.5564 10.315442076590303 -17.19830843962521 18.65676774692225 0 0 0
4131 977 2 0.5564 8.027233740582165 -16.055555080029958 18.163901261105064 0 0 -1
3025 609 1 -1.1128 8.373195519512636 -13.078566615466666 19.561208753124205 0 0 0
4130 977 2 0.5564 9.329603097077038 -15.286016532233885 18.223395544451474 0 0 -1
2112 304 2 0.5564 12.524254754890997 -16.75111377636212 -19.6240744430906 0 0 1
4210 1004 1 -1.1128 11.485504185529518 -19.238806171688513 16.58380075322023 0 1 0
1189 80 4 0.123 15.542586322505185 -10.667965253851738 14.584857672297181 0 0 0
3655 819 1 -1.1128 8.609958970429915 -19.873023967923178 9.891745105329568 0 1 0
4129 977 1 -1.1128 8.97606185175072 -16.167727600048853 18.105811802899186 0 0 -1
3026 609 2 0.5564 8.868046761804395 -13.055852100598752 -19.619744153527808 0 0 1
1321 89 4 0.134 14.803706340379172 -19.47906980272975 12.859934441834815 0 0 0
1324 89 4 0.123 13.853049733599613 -17.48875062897688 13.774001959804462 0 0 0
1770 190 2 0.5564 9.82559631029284 -16.763672729416555 14.752541984163447 0 1 0
1768 190 1 -1.1128 10.274813466456035 -16.471281792219575 15.54560145696128 0 1 0
1769 190 2 0.5564 9.591220276781643 -16.451959454228284 16.215346760890217 0 1 0
2110 304 1 -1.1128 13.021358287047672 -16.022426448648908 -19.252409677638852 0 0 1
3356 719 2 0.5564 11.741536695996555 -14.590313192364121 19.17735453962577 0 0 0
3355 719 1 -1.1128 10.904956655183433 -14.143568207343458 19.047799191015102 0 0 0
3357 719 2 0.5564 10.56660597038029 -14.00636913621993 19.932630849390076 0 0 0
4376 1059 2 0.5564 10.57244757328447 -13.608436603160305 16.909820763119797 0 0 0
4375 1059 1 -1.1128 10.183131429470718 -13.623667977399032 16.035502394013303 0 0 0
4377 1059 2 0.5564 10.477253817380143 -14.451842697005363 15.656226174958293 0 0 0
4243 1015 1 -1.1128 13.32602630936482 -17.8880660393579 -17.15496645261239 0 1 1
2111 304 2 0.5564 13.654558760274435 -16.437764511972293 -18.666932769664765 0 0 1
4244 1015 2 0.5564 12.591820808620911 -17.90834324527061 -16.541156303485963 0 1 1
3685 829 1 -1.1128 11.13870331214979 -17.628867316680044 18.887184182894796 0 0 0
3656 819 2 0.5564 8.211595679786422 19.259181494732363 9.958611904077449 0 0 0
3983 928 2 0.5564 5.7946810279320395 -4.341907600136372 19.415694281923145 0 0 0
3982 928 1 -1.1128 6.581507927525039 -4.4746036206765725 18.886991117770503 0 0 0
3459 753 2 0.5564 0.35517680888432585 -9.719333571562213 14.928100099153271 0 0 0
388 26 4 0.147 0.5806385639724829 -11.82882868880138 15.766216649409339 0 0 0
1095 73 4 0.123 7.3386193960854085 -4.883633382943259 11.179341942121068 0 0 0
3984 928 2 0.5564 6.377248359736065 -5.232114591724654 18.338641840469062 0 0 0
4318 1040 1 -1.1128 3.05485805554718 -9.201517704248756 18.31186452937116 0 0 0
3335 712 2 0.5564 2.433369928449675 -2.9672906163222517 15.138046821333795 0 0 0
4319 1040 2 0.5564 3.5691754584897613 -9.998074229689427 18.18068888520546 0 0 0
3304 702 1 -1.1128 6.280515044774955 -10.694174159345165 15.440104912225062 0 0 0
4320 1040 2 0.5564 2.261807478232243 -9.339909541929021 17.79403226832061 0 0 0
3733 845 1 -1.1128 3.8061552685011004 -6.60601243369701 18.25769039405417 0 0 0
3735 845 2 0.5564 3.447307425035538 -7.487068610531075 18.363520692031823 0 0 0
3734 845 2 0.5564 3.1846799840080826 -6.161407459691605 17.681212536054606 0 0 0
3306 702 2 0.5564 6.846918715646617 -9.952867954790861 15.65430999155525 0 0 0
3336 712 2 0.5564 3.9456279967866847 -2.9524224203848033 15.206963515475387 0 0 0
4181 994 2 0.5564 1.5218109204092591 -6.212106905050264 15.694866831625918 0 0 0
4180 994 1 -1.1128 2.3318729506219493 -6.7029506518520545 15.556650733105792 0 0 0
3749 850 2 0.5564 5.849621287212402 -10.80444463880478 17.53361063209729 0 0 0
3594 798 2 0.5564 6.723021677318285 -8.430488299858231 11.955494349069575 0 0 0
3750 850 2 0.5564 5.485470090965237 -10.173984078310985 18.860941978407155 0 0 0
3748 850 1 -1.1128 5.35766857382197 -10.965909212617355 18.338684196546524 0 0 0
2811 537 2 0.5564 4.770795839778589 -10.806000668057415 14.504396209767942 0 0 0
2809 537 1 -1.1128 3.956342934268784 -10.702833893599848 14.012202257903196 0 0 0
2810 537 2 0.5564 4.15667094670634 -10.037994602965847 13.353347819626746 0 0 0
3480 760 2 0.5564 5.628794339832462 -10.596536401222494 11.812243004174933 0 0 0
3478 760 1 -1.1128 5.224950179429776 -9.729112134073636 11.839017283348246 0 0 0
4079 960 2 0.5564 5.812789728504934 -6.000491902016944 15.96741846887046 0 0 0
2669 490 2 0.5564 2.328915824525983 -8.636662791572265 15.645278776540772 0 0 0
2668 490 1 -1.1128 2.112251843391639 -9.56876937550345 15.666862344431523 0 0 0
2670 490 2 0.5564 2.7975247253852196 -9.98658383108022 15.145264812886877 0 0 0
4078 960 1 -1.1128 5.955033601692375 -6.618225888178091 16.68463754858225 0 0 0
4080 960 2 0.5564 5.108422949546432 -6.669968528465463 17.128264588329927 0 0 0
4182 994 2 0.5564 2.7756084959567926 -6.238756001184544 14.846824048927882 0 0 0
3785 862 2 0.5564 3.7547900626134494 -4.156600792724667 13.14403535868443 0 0 0
3103 635 1 -1.1128 8.649890450584548 -7.124534736384604 14.02007809438715 0 0 0
3104 635 2 0.5564 8.447244385932695 -7.725908585826481 14.736678340527472 0 0 0
3105 635 2 0.5564 8.297810810609624 -7.553351573331554 13.240085933080326 0 0 0
3334 712 1 -1.1128 3.1623482969005803 -2.7803808808884884 15.729559362910402 0 0 0
4014 938 2 0.5564 7.4432221650181765 -4.370066821417754 14.589585568457535 0 0 0
4486 1096 1 -1.1128 3.5343190627631107 -2.8679241942578177 18.381540430923472 0 0 0
4487 1096 2 0.5564 3.01896554215593 -3.54208905284842 18.82442227047551 0 0 0
4488 1096 2 0.5564 3.179006038873468 -2.8391542057681174 17.493195452155955 0 0 0
4012 938 1 -1.1128 6.8133756621579 -5.070731672685421 14.420488011764256 0 0 0
4013 938 2 0.5564 7.3512655396326805 -5.853716904599093 14.30284256312851 0 0 0
4200 1000 2 0.5564 5.999636802845172 -3.4365210551678604 14.109561640367295 0 0 0
3101 634 2 0.5564 7.159202932427953 -8.038422754061251 16.372269438317062 0 0 0
4198 1000 1 -1.1128 5.365865268212531 -2.7448240797182106 14.299616158037612 0 0 0
3263 688 2 0.5564 9.840342867644617 13.493070474092882 17.643816582799904 0 0 0
3616 806 1 -1.1128 10.607526092555789 18.149407471047354 18.22052791487819 0 0 0
1190 80 5 -0.271 13.982453001622524 -9.61731250512232 13.441170268061242 0 0 0
1192 80 5 0.296 12.637767264961576 -9.302257632972037 13.229626836184456 0 0 0
1193 80 3 -0.439 12.23821184923887 -8.021155654006387 12.512947033280367 0 0 0
1196 80 4 0.123 12.960269112758144 -7.621797168889539 11.794245581969939 0 0 0
1199 80 5 -0.08699999999999999 12.171736872772405 -10.7655851729159 15.08641273995542 0 0 0
1197 80 5 -0.271 11.754765363828252 -9.876016505817539 14.040268584761552 0 0 0
1195 80 4 0.123 11.94483195686605 -7.242640724110727 13.218619172487275 0 0 0
1093 73 4 0.147 9.83553457199158 -4.68470864882141 11.427505230362035 0 0 0
3027 609 2 0.5564 8.385054371070888 -12.173968359800028 19.248489709513642 0 0 0
3680 827 2 0.5564 9.2503500009323 -9.407581490687047 18.73326770367492 0 0 0
3679 827 1 -1.1128 8.474588164303269 -9.955090394483282 18.612191841314964 0 0 0
3681 827 2 0.5564 7.743265291783519 -9.39686742375209 18.876361885525785 0 0 0
3153 651 2 0.5564 8.727108748818567 -5.943085198922675 18.988377580732053 0 0 0
1187 80 5 -0.184 13.527296781724594 -11.0408957530409 15.277082146563583 0 0 0
3080 627 2 0.5564 11.099756783367646 -7.934471072129164 18.58260887111039 0 0 0
3079 627 1 -1.1128 10.648012156073795 -8.316599488963758 19.335029316176882 0 0 0
1186 80 4 0.134 13.90306630516614 -11.44165351555972 16.209758442888525 0 0 0
3081 627 2 0.5564 9.97647968080761 -7.673907360965245 19.563552457834266 0 0 0
3100 634 1 -1.1128 7.950812274003859 -8.492816605873266 16.083976619574813 0 0 0
1200 80 4 0.123 11.431201824903823 -11.166308006066469 15.741828065563048 0 0 0
3611 804 2 0.5564 11.33176993951168 -6.749031843390993 16.709467469373255 0 0 0
3102 634 2 0.5564 8.249885531370476 -8.968856220988238 16.85868515632429 0 0 0
3612 804 2 0.5564 11.95719501820591 -8.12144696706551 16.578260473908895 0 0 0
3610 804 1 -1.1128 11.885012436288468 -7.376390498228701 17.174844362403096 0 0 0
3873 891 2 0.5564 9.836754704161194 -6.058207684646887 14.85991745078096 0 0 0
3577 793 1 -1.1128 11.487953511633537 -5.301304949841299 19.63724607770052 0 0 0
3579 793 2 0.5564 11.881563057626177 -6.110794113650468 19.31162277358018 0 0 0
4373 1058 2 0.5564 11.28370980281436 -4.828185596079536 -18.351088884928878 0 0 1
3872 891 2 0.5564 10.627284228181427 -4.769552472512604 14.780381165880842 0 0 0
3871 891 1 -1.1128 10.65334706162401 -5.6519622900294895 15.150388498165247 0 0 0
3578 793 2 0.5564 10.909799912504877 -5.014321702055497 18.93041450410073 0 0 0
3922 908 1 -1.1128 9.632067982295037 -5.000285230457007 17.56002333417923 0 0 0
3924 908 2 0.5564 9.844161895702314 -5.250563379629494 16.66079654616976 0 0 0
3923 908 2 0.5564 9.450326968578993 -4.061755689463064 17.51139946951175 0 0 0
1355 91 5 -0.271 13.64278942781791 -2.779856101457169 15.776594812444129 0 0 0
1356 91 4 0.147 13.581582206337913 -3.8002234610865666 16.270966211534965 0 0 0
1359 91 4 0.123 16.935092147892142 -2.472721764461728 16.38580020360529 0 0 0
1360 91 4 0.123 15.901409462194927 -3.930444334579745 16.636896884003146 0 0 0
1358 91 3 -0.439 16.157653946191676 -3.112155103089493 15.921753502978415 0 0 0
1361 91 4 0.123 16.451609918067227 -3.4979205352959077 14.954744858721265 0 0 0
963 65 5 -0.08699999999999999 0.3083372197212813 -2.9331292415030648 -19.7530590262802 0 0 0
3468 756 2 0.5564 1.0659555122834146 2.657643238053628 19.523951280434787 0 0 -1
3496 766 1 -1.1128 0.7739186373350393 -12.237846421453018 12.967565558463017 0 0 0
3558 786 2 0.5564 3.615074385222545 1.4768802177135092 16.786924125853222 0 0 0
843 57 5 -0.08699999999999999 1.3743304244483276 -11.292467423772447 -12.819137354583624 0 0 0
3557 786 2 0.5564 4.9357522509854315 0.8296908745831928 16.427965856027694 0 0 0
2146 316 1 -1.1128 0.3545135750929129 0.9902558827338414 19.6056406075683 0 0 0
520 35 4 0.123 1.1906858479484579 19.19690955719384 8.897784923955532 0 0 0
3716 839 2 0.5564 6.140837475598477 1.2964971849134914 -19.169323532853134 0 0 0
3717 839 2 0.5564 6.8752699084690745 0.013747074802917682 -18.842128952497497 0 0 0
3715 839 1 -1.1128 7.018789111084182 0.9410634221504872 -19.031122129600124 0 0 0
3150 650 2 0.5564 7.2826871492614424 0.21770629876103506 17.793700319932597 0 0 0
3556 786 1 -1.1128 4.539927851937787 1.6750469319162993 16.639928152548514 0 0 0
2181 327 2 0.5564 2.1538623831567234 -0.4047748241408861 19.68721854834963 0 0 -1
2180 327 2 0.5564 3.2529746130599895 -1.3969262723155567 19.371809367253906 0 0 -1
2179 327 1 -1.1128 2.9891338535586645 -0.7385341317411209 -19.98543131833111 0 0 0
3148 650 1 -1.1128 8.237054495016483 0.14429310579346374 17.798721059573268 0 0 0
1219 82 4 0.123 0.44792834252881614 -3.3451307930259118 1.3523621403057338 0 0 0
3037 613 1 -1.1128 5.597128487453851 -0.8159189961203515 16.74999327045497 0 0 0
3038 613 2 0.5564 5.554565550123916 -1.4693090149365844 16.051780055365544 0 0 0
4199 1000 2 0.5564 5.603172740898101 -2.0322363108297212 13.706205959674627 0 0 0
3039 613 2 0.5564 4.891256060848655 -1.0586728670724392 17.349198126735978 0 0 0
3441 747 2 0.5564 5.241344311658749 3.2468463854061036 16.339971650386207 0 0 0
3439 747 1 -1.1128 5.497698882312957 4.126547410621486 16.616811632505385 0 0 0
4403 1068 2 0.5564 5.072727500745366 -0.9129597328291847 12.08750906529583 0 0 0
4402 1068 1 -1.1128 5.749575284183456 -0.498305393859611 12.62245828945428 0 0 0
4122 974 2 0.5564 5.801671547857067 2.537233370793092 13.425710039747194 0 0 0
4120 974 1 -1.1128 5.079455558517389 2.398059832577498 12.81311994986349 0 0 0
4404 1068 2 0.5564 6.272488791355674 0.006106143249591054 11.999271078652967 0 0 0
4121 974 2 0.5564 4.839556755630338 1.4787859768022922 12.929807439877115 0 0 0
3166 656 1 -1.1128 2.6632386766445313 3.969208605295481 15.347855330567985 0 0 0
4184 995 2 0.5564 8.785279581779688 3.4158801720041856 19.72818021480384 0 0 0
3671 824 2 0.5564 8.944081710061262 0.16367968168369923 16.141081533118783 0 0 0
3672 824 2 0.5564 8.338936261373478 0.7122931069236655 14.866437467872244 0 0 0
3670 824 1 -1.1128 9.025012289793214 0.12737518831513786 15.188000162672878 0 0 0
3167 656 2 0.5564 3.572691642676371 3.6808853123547256 15.425294477678367 0 0 0
4183 995 1 -1.1128 8.314646520271335 2.748140951778066 19.22932081991991 0 0 0
3643 815 1 -1.1128 7.401850894229829 2.583671474630754 14.866326007164918 0 0 -1
3644 815 2 0.5564 8.176942929730432 2.923147103400463 14.418866173995854 0 0 -1
4185 995 2 0.5564 8.025671924242463 2.116070343157232 19.887509453474774 0 0 0
3440 747 2 0.5564 5.343937633569674 4.135179864796673 17.561541700545643 0 0 0
3168 656 2 0.5564 2.715631060491959 4.8082805686022265 14.890203565900908 0 0 0
3456 752 2 0.5564 8.365641588232462 -2.1982951008829614 14.733468858328505 0 0 0
3149 650 2 0.5564 8.53249141337076 0.8914578482607637 18.31900333362609 0 0 0
3645 815 2 0.5564 7.13452174722481 3.290980638164642 15.453250795584783 0 0 -1
1837 213 1 -1.1128 0.02396848191106095 16.23463513626352 -18.882034920196645 0 0 1
3995 932 2 0.5564 10.659657747131446 -2.685630978830779 -18.4811749504739 0 0 1
4016 939 2 0.5564 9.327901482208995 -0.17017937508695063 11.290323222908205 0 0 -1
1465 98 4 0.123 14.121219098295942 1.4086072787576005 12.78886205574016 0 0 0
1463 98 3 -0.439 14.696696416130191 1.93986131956509 12.011552605407953 0 0 0
1466 98 4 0.123 15.719621535335657 2.0488071835479382 12.398259781058158 0 0 0
1464 98 4 0.123 14.336424279888917 2.976816105281712 11.876503916638578 0 0 0
3996 932 2 0.5564 10.67735808032034 -1.4805210171083967 -19.397303680153502 0 0 1
3454 752 1 -1.1128 8.31603155934563 -3.012644183724408 15.23407474038783 0 0 0
3455 752 2 0.5564 8.41880351215154 -2.740416542857819 16.145974897620768 0 0 0
4062 954 2 0.5564 10.549059907404398 4.505596360342546 16.55661392938187 0 0 -1
3515 772 2 0.5564 10.54100649544316 1.2230849283815088 15.155185475597634 0 0 0
3516 772 2 0.5564 10.010367871732942 2.591719116599095 15.5255342114039 0 0 0
3514 772 1 -1.1128 10.82399170886324 2.0995786457343217 15.415780883624521 0 0 0
4015 939 1 -1.1128 9.075564830604923 0.3141176772550779 12.076462128870123 0 0 -1
3732 844 2 0.5564 7.703897561762783 -3.1336411975608005 18.02987151172734 0 0 -1
4060 954 1 -1.1128 9.604086900058649 4.35311418450413 16.553988938443894 0 0 -1
3730 844 1 -1.1128 8.483961916683011 -2.5972296759132147 17.88847095721896 0 0 -1
1364 91 5 -0.08699999999999999 14.078371427817242 -0.1542241493753546 14.899460211384914 0 0 0
1352 91 5 -0.184 12.793240924701141 -0.6714501081816735 14.87901279279648 0 0 0
3731 844 2 0.5564 8.235065399905194 -1.725816977927262 18.19656553962422 0 0 -1
1357 91 5 0.296 14.95272456972878 -2.261779188583534 15.67289655614142 0 0 0
1353 91 5 -0.08699999999999999 12.590697981263748 -1.969729245017623 15.375049773580239 0 0 0
1354 91 4 0.123 11.584717691627683 -2.3806125274797663 15.31164435902937 0 0 0
4061 954 2 0.5564 9.384986559860273 4.188639905164493 17.47114481909691 0 0 -1
1365 91 4 0.123 14.237794262624904 0.9302816064004393 14.842113570320238 0 0 0
1351 91 4 0.134 11.946529108639126 -0.24813390886023173 14.311333623483906 0 0 0
3337 713 1 -1.1128 12.925073237896168 3.3892121100390686 14.881459040728767 0 0 -1
3338 713 2 0.5564 12.119717217806608 2.881974662371358 14.98316370807021 0 0 -1
3339 713 2 0.5564 13.615128008128146 2.8120296975492174 15.20844022251749 0 0 -1
4361 1054 2 0.5564 9.696744825851736 2.6062602083410344 12.441692214775351 0 0 0
4362 1054 2 0.5564 10.148722778053463 4.016339734924999 12.756790343648536 0 0 0
4360 1054 1 -1.1128 9.451533565867269 3.3863605646517483 12.939232868965687 0 0 0
1362 91 5 -0.271 15.149597126379827 -0.9405549360845321 15.23526150084386 0 0 0
1363 91 4 0.147 16.10780913982176 -0.43629748311468713 15.568464166656392 0 0 0
2943 581 2 0.5564 12.710122275383613 14.117339684209709 10.517367295001325 0 0 0
3467 756 2 0.5564 2.401653842683378 3.295806502987332 19.841051784315106 0 0 -1
3466 756 1 -1.1128 1.6057229887888653 3.4226079015414452 19.324672775606498 0 0 -1
3617 806 2 0.5564 10.828483949067875 18.663823754107252 17.444135417469145 0 0 0
971 65 4 0.123 1.210310674150777 -7.5199591715582725 -19.586670354379212 0 0 0
3536 779 2 0.5564 2.7867238668589955 6.596293413593584 18.135957343382056 0 0 0
2886 562 2 0.5564 0.7387716290826283 3.9299644263394757 17.757259584223387 0 0 0
263 18 3 -0.439 0.12373837283861926 9.593942654879323 -10.027616311105048 0 0 0
1149 77 4 0.123 1.5092979243825364 -0.6722940127080405 9.489036630131407 0 0 0
4283 1028 2 0.5564 11.800058983795715 14.760927132979008 14.102766791591115 0 0 0
584 39 5 -0.08699999999999999 1.6735516829768677 11.257267228578133 -13.974285504770446 0 0 0
3574 792 1 -1.1128 6.182361183661328 8.432212034777574 11.54987989379797 0 0 0
3633 811 2 0.5564 0.33060152264848963 -19.329039267065422 -9.856538488385706 0 0 0
844 57 4 0.123 1.6376010306058808 -10.843843792370674 -13.763529793446443 0 0 0
1787 196 2 0.5564 0.5107562747769169 6.3251425400922985 17.225886695247844 0 0 -1
4300 1034 1 -1.1128 3.424665534556801 6.037938702938742 13.847914502259908 0 0 0
4301 1034 2 0.5564 4.18160146008735 6.623516324617489 13.867374554463542 0 0 0
3642 814 2 0.5564 5.601915359180752 4.318677594050894 19.495738076858323 0 0 0
4024 942 1 -1.1128 4.865440375033477 11.107008057638131 12.358625741516844 0 0 0
4025 942 2 0.5564 4.7906254145853815 10.182403682448374 12.594721722274588 0 0 0
3575 792 2 0.5564 6.881089025153275 7.820342719117597 11.781455360995794 0 0 0
4026 942 2 0.5564 4.9632428122210746 11.104402814995483 11.406438920762575 0 0 0
3641 814 2 0.5564 4.546804511105137 3.251332041907641 19.694256603738484 0 0 0
3640 814 1 -1.1128 4.790687119633458 3.9770221788031317 19.119690007291354 0 0 0
3535 779 1 -1.1128 3.4831862140275165 6.6377887464912755 18.79128182054531 0 0 0
4302 1034 2 0.5564 2.699246651041459 6.572625982966798 14.17057335274299 0 0 0
3884 895 2 0.5564 1.2881466328893134 9.325194943866414 13.608372309840007 0 0 0
4264 1022 1 -1.1128 0.9252765262506144 6.754100335860166 14.458372345371455 0 0 0
4265 1022 2 0.5564 0.8345505203706047 7.585594803780753 13.992950429245369 0 0 0
3216 672 2 0.5564 3.253745912518384 10.064782769286728 15.045423482043365 0 0 0
3214 672 1 -1.1128 2.9358927858634685 9.31484689784969 14.54263388651016 0 0 0
1788 196 2 0.5564 1.2369631627408249 7.373822324174882 16.410540500070464 0 0 -1
4266 1022 2 0.5564 0.34587097630280644 6.152737023534216 13.990522879606738 0 0 0
1786 196 1 -1.1128 1.0271806226085387 7.126559497998861 17.311142639897785 0 0 -1
1028 69 3 -0.439 6.280159341729058 11.918293091084665 15.690048897281804 0 0 0
3537 779 2 0.5564 3.9110484417141427 5.783002280609636 18.741223364818588 0 0 0
1025 69 5 -0.271 5.590301058641758 11.359741549991746 17.96097419146629 0 0 0
1023 69 5 -0.08699999999999999 4.675388435958209 11.346805823420278 18.968670305831516 0 0 0
1026 69 4 0.147 6.647333215598982 11.308626182331802 18.167412802983034 0 0 0
1024 69 4 0.123 4.977106771577548 11.154476215403822 -19.994201397739648 0 0 1
1027 69 5 0.296 5.191270898612143 11.616153023252384 16.645274815602246 0 0 0
1030 69 4 0.123 6.4679054029623435 11.115733372893997 15.02491506162623 0 0 0
3215 672 2 0.5564 3.66543635538395 8.695201650010969 14.548781044759503 0 0 0
1022 69 5 -0.184 3.2814911273727017 11.46972179766918 18.672487055881042 0 0 0
3947 916 2 0.5564 6.468462186614 7.972352906455954 14.71288244937697 0 0 0
3946 916 1 -1.1128 5.626851702197708 7.964400456983935 14.256965455957385 0 0 0
3948 916 2 0.5564 5.844680565206498 8.168268199139252 13.347448938606348 0 0 0
1021 69 4 0.134 2.5821991519162237 11.307223728396364 19.518428402207313 0 0 0
3740 847 2 0.5564 7.694866056746668 6.409125294415565 19.56773066494765 0 0 0
3879 893 2 0.5564 7.6980068292972 5.520293380697104 12.69487731254863 0 0 0
3392 731 2 0.5564 3.9166298354903946 12.684169245526295 12.768673505255853 0 0 0
3097 633 1 -1.1128 7.507241777257074 6.073258799864171 16.208357103075034 0 0 -1
3098 633 2 0.5564 6.786570257013524 5.447156782491367 16.27807559154966 0 0 -1
1029 69 4 0.123 7.1922556777958295 12.073602360994416 16.17771903990439 0 0 0
3230 677 2 0.5564 13.090603962476253 11.8557176242367 14.98178256983225 0 0 0
3860 887 2 0.5564 12.408677229135398 4.368081044151493 17.666918261216278 0 0 -1
3861 887 2 0.5564 12.435105120569142 4.654459217406321 16.18058576722093 0 0 -1
3859 887 1 -1.1128 12.357242934322784 5.0832705625634995 17.032812353558757 0 0 -1
3099 633 2 0.5564 8.271805717132638 5.53678627240024 15.998902949341163 0 0 -1
4084 962 1 -1.1128 12.833592863982474 10.378606277346234 -19.62456224917141 0 0 1
3836 879 2 0.5564 12.701642823541915 11.948981439234084 12.154655847426627 0 0 0
3835 879 1 -1.1128 12.266191745390925 11.601991927083983 11.37605938303566 0 0 0
3721 841 1 -1.1128 8.759967387543739 8.312488399312372 18.710382614378123 0 0 -1
3723 841 2 0.5564 9.360909861446244 7.567568949357835 18.72434676164307 0 0 -1
3116 639 2 0.5564 9.625522165726379 11.876787983404393 19.296682276778483 0 0 0
3893 898 2 0.5564 14.937881462027235 8.420982179028076 15.74236314050723 0 0 0
4063 955 1 -1.1128 9.987625179442757 12.2389489709339 13.126197163853531 0 0 0
4065 955 2 0.5564 10.47010902788384 11.97534024359052 12.342646553890605 0 0 0
3722 841 2 0.5564 8.704569249509877 8.558866350174625 17.787094585457726 0 0 -1
3293 698 2 0.5564 11.278036225457088 5.94588364745636 13.8878256233716 0 -1 -1
3292 698 1 -1.1128 11.535117001554143 5.2970315892164965 13.232743734965567 0 -1 -1
4064 955 2 0.5564 10.387303644576159 13.068925561192513 13.38625069138569 0 0 0
4469 1090 2 0.5564 13.29822017604001 6.437891145831154 10.577318895349658 0 0 0
4468 1090 1 -1.1128 13.265097183294252 6.514694719291879 11.530857512327083 0 0 0
3667 823 1 -1.1128 11.598571773527436 9.284639223780776 17.824310765535255 0 -1 0
4033 945 1 -1.1128 11.18367911754836 7.546976753934887 14.51568860410061 0 0 -1
4034 945 2 0.5564 10.590832391266366 8.06021507504844 13.966734119504926 0 0 -1
3878 893 2 0.5564 8.192439904802912 5.767990352311322 11.28559476585486 0 0 0
3710 837 2 0.5564 9.16988576027976 9.139573952117921 15.283637066822829 0 0 0
2991 597 2 0.5564 9.341648399279949 9.112486912904362 12.512519605624185 0 0 -1
2990 597 2 0.5564 10.05953995360779 10.150150831941104 13.349048439530407 0 0 -1
2989 597 1 -1.1128 9.58285916793934 9.322683780507356 13.414665093027732 0 0 -1
3709 837 1 -1.1128 8.413079642298728 8.94145738533392 15.83520399320555 0 0 0
3711 837 2 0.5564 8.358928815768921 7.985790964398682 15.834117429450947 0 0 0
3892 898 1 -1.1128 14.070826768366063 8.501367383642773 15.344888361332872 0 0 0
3894 898 2 0.5564 13.461423599963817 8.307199734654452 16.0570390023054 0 0 0
3229 677 1 -1.1128 13.469194933443983 11.642684934523272 14.128836023916435 0 0 0
3231 677 2 0.5564 13.398817950209786 10.690133557086027 14.06618824985472 0 0 0
4035 945 2 0.5564 12.033453840344704 7.976622484533695 14.418121717503041 0 0 -1
3294 698 2 0.5564 12.276101727611875 4.837645428401731 13.627886474395783 0 -1 -1
4470 1090 2 0.5564 12.632308139085946 5.850179818025301 11.803308985863636 0 0 0
4313 1038 2 0.5564 10.910738734965763 5.9997534848582985 18.088785145440507 0 0 -1
3912 904 2 0.5564 7.431596436168153 14.902441573275599 -19.63418750705334 0 0 0
3778 860 1 -1.1128 6.187595237096115 16.215166441843262 19.957866716163682 0 0 0
3780 860 2 0.5564 5.507529393281292 15.666758092235522 19.566726665823072 0 0 0
3779 860 2 0.5564 6.700663067685042 16.52892824929015 19.213187739058956 0 0 0
3413 738 2 0.5564 1.0238474904521002 12.93008999190104 -19.811538524507846 0 0 1
1381 93 4 0.134 2.0021386644234096 19.228837690045893 14.065406114786816 0 0 0
4380 1060 2 0.5564 13.379690444570286 14.52330279259456 13.192772278236362 0 0 0
1227 82 5 -0.271 0.4235537085271446 -7.092108039720626 1.5000424348360428 0 0 0
2318 373 2 0.5564 1.455815120210111 17.543290834321326 18.43092041801028 0 0 0
967 65 5 0.296 0.9447918160217024 -5.303702893698927 -19.764245440122327 0 0 0
3976 926 1 -1.1128 7.721288553259455 12.640924972658286 11.914136168667541 0 -1 0
3977 926 2 0.5564 8.45935008575991 12.401368514518731 12.474591135188891 0 -1 0
3978 926 2 0.5564 6.979610426131192 12.153439096912772 12.272609158190075 0 -1 0
3674 825 2 0.5564 7.990193371168916 14.249432052863748 12.480125012355765 0 0 0
1031 69 4 0.123 6.144843858222329 12.780240609572386 15.074811063078938 0 0 0
1032 69 5 -0.271 3.8104632340540814 11.803970089893879 16.323018901500852 0 0 0
1034 69 5 -0.08699999999999999 2.865542888355024 11.654785497078262 17.32897818537456 0 0 0
3391 731 1 -1.1128 3.308138819554542 13.422160268116997 12.732070601406203 0 0 0
1035 69 4 0.123 1.8966729643490856 11.239072146776566 16.993271014243586 0 0 0
4087 963 1 -1.1128 4.2993400957774375 19.16331638977392 14.395196899207644 0 -1 0
4089 963 2 0.5564 4.189320258565082 -19.90213933835922 14.219827826565865 0 0 0
3410 737 2 0.5564 3.4535583980530324 14.43862883908161 19.342712544956097 0 0 0
3206 669 2 0.5564 2.785963516503525 15.75833602485733 17.341405566232165 0 0 0
1610 137 2 0.5564 1.4443445763960634 15.346661333918043 12.936481975203472 0 0 0
4132 978 1 -1.1128 3.4827811238398403 -19.650409028250927 11.120567148175143 0 1 0
4133 978 2 0.5564 3.8132882257270153 19.461844488232217 11.25805550365784 0 0 0
3411 737 2 0.5564 4.451612233468858 13.918598016622884 18.330116158720937 0 0 0
3207 669 2 0.5564 2.2794067913883995 16.239401597422972 15.998322785338463 0 0 0
3629 810 2 0.5564 8.350511727162443 18.80612614554176 13.06100293315528 0 0 0
1033 69 4 0.147 3.4866610357481647 12.218101015945926 15.330889138736497 0 0 0
2970 590 2 0.5564 4.596995120665695 17.983334261045915 12.661182738823893 0 0 0
2969 590 2 0.5564 4.460449604291664 17.201591526409928 11.371946974462414 0 0 0
2968 590 1 -1.1128 4.794119726753539 18.02615845814248 11.725479889082878 0 0 0
4168 990 1 -1.1128 7.5391003107359476 15.586942281364013 17.30891857300944 0 0 0
4169 990 2 0.5564 8.385619219373439 15.926775225001435 17.018830405925975 0 0 0
4328 1043 2 0.5564 8.302605454054461 18.572692916834907 15.55313371495683 0 0 0
4134 978 2 0.5564 4.087097908957531 -19.091075888602507 11.608603342145685 0 1 0
2724 508 2 0.5564 0.8382208063057202 13.391293481910044 14.515797755790526 0 0 0
2722 508 1 -1.1128 0.44373615700985447 13.787668713559327 13.738944890227051 0 0 0
3205 669 1 -1.1128 2.017803098332103 16.13633307400139 16.91329389871604 0 0 0
4391 1064 2 0.5564 3.0393287952288905 15.773531329014912 11.204142140253692 0 0 0
4390 1064 1 -1.1128 3.904811592238612 15.797032603315962 10.79595216405252 0 0 0
4392 1064 2 0.5564 4.401628276466369 15.11461303407661 11.24729300267103 0 0 0
3409 737 1 -1.1128 4.134061954900271 14.726198208280016 18.73406604850168 0 0 0
4085 962 2 0.5564 13.120214100600203 11.227265787984209 -19.961989500245608 0 0 1
3452 751 2 0.5564 1.5438956788979734 3.1922763264243565 13.876626071144646 0 0 0
4262 1021 2 0.5564 13.294518074223198 15.16335509550599 16.11491612925257 0 0 0
3114 638 2 0.5564 14.552600704545608 14.33492018830436 19.351885172270556 0 -1 -1
3287 696 2 0.5564 11.062672329779664 15.317874582178534 -19.76757459387542 0 0 0
3288 696 2 0.5564 10.43715885780154 13.941878283247636 -19.852793369066653 0 0 0
4298 1033 2 0.5564 10.31804259605342 17.63422293375795 -19.76897042737157 0 0 0
4297 1033 1 -1.1128 10.874802896743525 17.339038872162995 -19.04847326710912 0 0 0
3264 688 2 0.5564 11.08916077091508 14.262691241227069 17.269607045662465 0 0 0
2941 581 1 -1.1128 12.93333569653372 14.536996378957786 11.348207752139672 0 0 0
4284 1028 2 0.5564 10.62392614794982 14.429194320119942 14.996388652359261 0 0 0
3618 806 2 0.5564 11.431159889664348 18.07700008224153 18.70283107864075 0 0 0
4378 1060 1 -1.1128 13.672571225908081 14.34918320904802 14.087274960915346 0 0 0
3675 825 2 0.5564 9.189046572664841 14.814451611570817 13.211834632518022 0 0 0
3180 660 2 0.5564 12.916408149594055 12.573216871839062 18.55190169267582 0 0 0
3178 660 1 -1.1128 13.363966285876504 12.83189374595414 19.35751315405365 0 0 0
2942 581 2 0.5564 12.486471335596194 15.382927369328483 11.317469319229088 0 0 0
3673 825 1 -1.1128 8.261681656647557 14.977243134850596 13.039425431639136 0 0 0
968 65 3 -0.439 1.2643563339271262 -6.545411173373732 -18.944903707393063 0 0 0
868 58 4 0.147 0.855346327505678 15.305757819517762 -13.70633739647534 0 -1 0
1369 92 4 0.123 0.3070504083335948 -10.904058313823658 -17.910482221374114 0 0 0
3431 744 2 0.5564 0.6610642154860943 -17.619063814904635 -1.6597519943366679 0 0 0
4052 951 2 0.5564 0.7519002361948591 11.857128947611807 10.488468445645042 0 0 0
420 28 4 0.123 0.05605366744594712 -4.582188206936844 -13.892737987477963 0 0 0
3414 738 2 0.5564 0.16516230819918384 12.351681442867742 19.08392610147454 0 0 0
3801 867 2 0.5564 0.05199956088129969 16.734377256133445 -5.706522786903252 0 -1 0
1408 94 4 0.147 58.215117547284066 -3.007248639610914 -0.6614104815956148 0 0 -1
939 63 4 0.123 50.38344396480638 3.3354079639562335 1.8950461709056317 0 0 0
934 63 4 0.123 54.40038281000199 0.5400523272077107 0.7458763199723074 0 0 0
931 63 4 0.134 54.70306683632089 1.4505559759328317 -1.419974512274414 0 0 0
932 63 5 -0.184 53.747462991016334 1.6193619326727617 -0.8894598063496179 0 0 0
936 63 4 0.147 52.22016665091093 0.7473672797016364 2.0327393266806237 0 0 0
935 63 5 -0.271 52.35606384242063 1.2082778596182147 1.059410185886606 0 0 0
933 63 5 -0.08699999999999999 53.47600795262103 0.9786515971623391 0.3105757543538567 0 0 0
945 63 4 0.123 52.94929998231395 3.073981515843084 -2.2706388757949423 0 0 0
943 63 4 0.147 50.941302184062046 3.5445260861909347 -0.8818471829849516 0 0 0
940 63 4 0.123 49.349377684948905 2.6441219395896107 0.6792095010310002 0 0 0
937 63 5 0.296 51.381121100349596 2.0435203409708986 0.5588002650447764 0 0 0
938 63 3 -0.439 50.15038924907351 2.4144516030505487 1.348276606384834 0 0 0
944 63 5 -0.08699999999999999 52.777273928636845 2.50849343767808 -1.38701183152327 0 0 0
942 63 5 -0.271 51.60067335054514 2.712872786889039 -0.6533568132500989 0 0 0
1396 94 4 0.134 57.381120875031606 1.2202880523889974 -0.6740158855408598 0 0 -1
1399 94 4 0.123 58.521171069675034 1.4172348331880582 -2.8095105686969126 0 0 -1
1410 94 4 0.123 56.89740475241938 -1.0487186061000993 0.3207569126272504 0 0 -1
1409 94 5 -0.08699999999999999 57.58661570429152 -0.9209693363873038 -0.5096550895075002 0 0 -1
1397 94 5 -0.184 57.72412010172494 0.29820609614623156 -1.13630727089386 0 0 -1
1398 94 5 -0.08699999999999999 58.37780170412086 0.4473353905673077 -2.3392860868097514 0 0 -1
1400 94 5 -0.271 58.938127328994234 -0.6309747360985749 -2.957363873969256 0 0 -1
1407 94 5 -0.271 58.20646025702699 -1.9923797070142524 -1.0991935096016645 0 0 -1
1402 94 5 0.296 58.87479849199285 -1.8423266496863118 -2.3190073193577834 0 0 -1
1404 94 4 0.123 58.65221199113669 -3.488277192997366 -3.647670441511444 0 0 -1
1406 94 4 0.123 59.7467566606573 -3.7626626598516717 -2.228463707747989 0 0 -1
1403 94 3 -0.439 59.42061763755736 -3.0250007535434813 -2.984869550055131 0 0 -1
1401 94 4 0.147 59.2457625438423 -0.5682773008459295 -3.9932079918084193 0 0 -1
941 63 4 0.123 49.85161157948814 1.562451074128886 2.0222720675011434 0 0 0

Velocities

191 -0.00031970020749550355 -0.008691024353576044 0.003045596884198307
189 0.007360974798580469 0.002101132512784514 0.0031349971555657847
190 0.006102846569323571 -0.0029758071015699855 -0.003952658239134374
181 0.0009033264021327393 -0.00722568264954227 0.001843945445525199
186 0.0091684751334811 -0.007975889535966042 -0.0011656672841610107
183 -0.0037742255694750058 -0.00512672781405782 0.002577127576114045
185 -0.001270107584449952 -0.004767683852354933 0.0012048283821822997
194 -0.001724986708982512 -0.004568001178817746 0.0013257948200738423
188 -2.857697732709014e-05 0.0008823168921805732 0.000690311529401
187 0.0010544400239682894 -0.003063376604419452 0.0001270088866566363
193 0.001098220776146394 0.005456991173668386 -0.009711166407467626
182 0.0030903071754159682 -0.006425006441944974 2.5528348362195912e-05
192 -0.0017250233710120724 -0.004208128774868144 -0.00168277333455884
195 -0.009537947479501723 -0.006929548246944459 0.009970232955670006
184 -0.008735127922982474 0.001541494849386457 0.0030601563161586406
1405 0.02253510005165 -0.008658095574120832 -0.007574557559168974
823 0.016699198785028745 0.0032305479811533073 0.0037566952186561323
824 0.004456375335680461 0.00038516676703206643 0.004329419469910395
825 -0.003303880268431429 0.00384175647614955 0.0079891002731607
811 0.03605370511956634 -0.025898133410684768 -0.011160933325216074
196 -0.006270147333763154 -0.007791547506011206 -0.005681626007484695
197 -0.0016441185559978985 0.00033489608454399426 -0.004382755133863438
198 0.0004864617299119966 -0.0011551577462190034 0.002482255929512259
812 0.0022739066662736335 0.0017481707235573914 -0.002161951204304221
815 0.002246899157961949 -0.0037737585343157114 0.004824001200186919
813 -0.0036942622587976095 0.006655064474183355 -0.0018802647939655023
816 0.01135463124782394 0.0031998385556032847 -0.008540647552689438
210 -0.001275820901669298 0.006934251783144169 -0.0008820667169273434
209 -0.0006990839125584179 -0.0075036622764599855 -0.001181726359485284
822 0.002572110519855294 -0.0032714738204081047 0.006454216530732311
818 0.004273683102339649 0.0004810722743358556 0.004613013017084385
821 0.002252473998431086 -0.018367119715298138 -0.0012977293199191767
820 -0.01254734064428117 -0.005879807989370025 0.00901839146748154
817 0.006457700336860494 0.004425795260554974 0.0041831060834425044
819 0.005281438248569813 -0.005911623496532577 -0.005300978553232057
207 0.0023394540757345427 -0.004027727449535808 -0.0004612849696025767
202 0.001687233082607582 -0.002238116931947568 0.0024429746232068512
208 -0.0201525555169945 -0.018161656788668382 0.016770091899582305
2195 0.023117293173726922 0.002349281964556342 -0.012090449954267304
2814 0.01595665628491412 0.0006176271095290835 0.011227677388258354
2812 0.0030388228969935476 0.000588786117756371 0.001807245571937681
2813 -0.005240550555887308 0.0001557233380306533 -0.0032522603244312023
2194 0.0036840514568586644 -0.00020174384516638533 0.0001997544367661909
2422 -0.002782008979414078 -0.0013103411530722693 -0.0026648335811059395
1917 0.005770985946524513 -0.013277188626728383 -0.009090238721673501
2423 0.014137908725659626 -0.015568817014823365 -0.0060303981556402465
1915 0.0032487347338410197 0.002504097518874764 -0.001943949164827287
1916 0.0202307911569702 0.004008625735168986 -0.0010868514586353337
1889 0.0035821371587256893 -0.00283156451109716 -0.011993283411338474
2196 -0.01669181982234965 -0.0033340492178266703 0.01374917153120218
2222 -0.0055082450336500785 0.00022684386218045548 -0.008406104919344686
2806 -0.0036816217758681396 -0.0010318772066977436 -0.0017458253704893153
2807 -0.0023485635966340158 0.0059158767060897835 0.0012154391952845206
2221 0.008814516973276613 -0.001915152551913521 0.0009415214425461687
2297 0.0014091635605391743 0.009854110785338507 -0.009214321387069742
2296 -0.0019303011866207123 -0.008774337158141306 0.0032948691535690973
2298 -0.025645585005944587 0.0052396101664912 -0.00762154936653717
2808 0.0003848631063312446 -0.004634280759899407 0.0003240847734354491
2392 0.004593848365966264 -0.00012217647538805945 0.0012600011350987752
2393 -0.005497819702154244 0.005266404541732187 -0.011891524221411985
2780 0.0002462500801270608 -0.002433957004161414 0.0026544106690761806
2394 -0.0020559991325520485 0.024037389158205507 0.005434255934279544
2054 0.006144812578531816 0.008522094364346675 -0.004503275748827437
2580 -0.013661884438337536 -0.019801458525008527 -0.016089245973915242
2108 -0.0010076180474572467 -0.00027505571088707757 0.014474092421915087
2109 -0.0022768533834401435 0.013971568843822574 -0.002148732092524372
2160 -0.004805375681704568 0.009547893191773394 0.00024362018314114459
2053 0.009570539428208985 -0.0014491508429579304 -0.003309019538547327
2055 0.011811181812198266 -0.0066372517889202376 0.004337220822523819
2779 0.004791944637917047 -0.00042131237452725976 -0.0031946312640929414
2107 0.003241982457972172 -0.002458357331688477 0.0006592185893719524
2781 0.006444019006479114 0.0009684939352205175 -0.001641380569065014
2223 -0.00721624753252409 0.004929782877389423 -0.010283836530666411
1633 -0.004958883049078426 0.0037988388058556727 -0.005191885493171435
2402 -0.008912734503710894 0.0015948837170865367 -0.0073802575854903
2424 -0.0007619256459039052 -0.0023216387526884753 -0.0055882624368499886
2082 0.016683415880071634 0.01241044759474687 -0.021604760617046057
2080 0.0030501397256151937 4.707989469081388e-05 -0.009288346158838813
2428 0.0017078982792158982 0.002585541560849751 -0.006255016256556736
2430 -0.012277188795097264 -0.017292810543012634 0.0005458870882244629
2429 -0.014602317455526011 -0.019966405489944914 0.0015121684345849816
34 -0.002185817975474953 0.010798568204782193 -0.012635034052986724
1872 -0.002454668489537822 0.008515993067302236 0.016006036492013296
43 0.01213969083517877 0.0009888377780540468 0.01705153069792721
37 -0.006536635973404245 -0.0025840332019979855 -0.003792183961963504
38 0.0020750496927951917 -0.004524747539091806 0.00016016713218329096
40 0.023380877665880685 0.030398236331784435 0.023887769957117548
39 -0.02350637120432807 -5.737536641472977e-05 -0.00758044378955949
42 0.002410279054218695 0.004941770105593365 0.0007487413635360385
41 -0.010259347083883558 0.012493522312295639 0.0037968673934392827
44 0.005534241943090219 -0.0034604485002375715 -0.001773550064774482
35 0.004446044020002796 -0.00570303691944853 -0.0014720041289782789
36 0.010604723401494015 0.01806650254052325 0.0004920853423581231
1870 -0.009545118349176167 0.002521643868963145 0.006035898087481875
1871 -0.010403054690439669 0.009637637789419702 -0.006031148425991076
1772 0.0006076990723303633 0.015571192503713005 -0.0071484019747495055
32 -0.004269548472023593 0.00566733051418978 0.004692373357783604
33 -0.00042207580769327587 0.006250546926429435 -0.004409434984303246
1773 -0.020966856359899207 -0.009247247143869704 -0.0059666246977076245
1524 -0.0031006953361462667 -0.008120403287599479 -0.004801440491498222
45 -0.00045854495267219007 0.011835531098254125 -0.00935854728502847
1664 -0.023011720493260782 -0.006428989378248116 0.0077959603403328
31 -0.01794354917710814 0.0023375120778603765 0.00617399408065412
1771 -0.0004287696847967286 0.005259023036238946 0.0008092378881277359
1663 -0.003730682875733662 -0.000512727502554034 0.0045709329881313265
1665 -0.010940007015507139 -0.005104496229741354 0.00605530571286704
2758 -0.010224711758535282 -0.0031889024071444097 0.00878079826331402
134 0.007518535312380193 0.0007404769922166488 -0.0005234610700357862
135 0.0024785174497401535 0.015771505424841303 -0.03940099532340828
122 0.0002372971186971416 0.0022934900374831564 0.0013773994821925355
174 0.015256344217231306 0.006331368908272738 -0.000947496506524169
172 -0.0040229734021284365 -0.006634631274372929 -0.002303931520489965
2893 0.001038906359622151 0.002351397449175169 -0.003157039423404589
846 -0.002090335425050715 -0.015312489075967854 -0.010711626249833926
121 0.016857754646472805 0.006137089207342043 0.024919581597985307
204 -0.00782633844060377 0.012887272017361881 -0.011431650447245251
203 0.0018037787546864414 -0.004304264893377592 0.0012384203483447643
1832 -0.014887973425130357 0.002258787227819528 0.015556734517202487
2403 0.011793011595963295 -0.006358281298555796 0.005936260280774004
2578 -0.002839330994971915 -0.003593306975570829 -0.005853604780704375
2616 0.0035271058272903165 0.028379904835097683 -0.007998842969420238
2457 8.762105077486441e-06 -0.03622090360566722 0.0007497491614616537
2091 0.016160727350905797 0.010388270269393632 0.04076165819266993
2089 0.0011184970808710024 0.000305606783205623 -0.0027106547049309294
2767 -0.0007343779370060411 -0.001717993816560855 -0.0019515924691020767
2769 0.006610498463085728 4.660793194420121e-05 0.0024388498986982025
2768 -0.011991795303384454 -0.0034932931200456784 -0.021011977530310585
2343 0.011110098837125335 -0.0060048507136866 0.0006485820312235988
2342 -0.0039084916263662055 0.0061920202226637185 -0.014132185049873356
2456 0.004307777642913129 -0.030372947743161988 -0.0030691832110803256
2455 -0.002589148998099168 0.0027082674788158328 0.00690776692597956
2090 0.0019731082794615974 0.013718807223891127 0.017381052498422915
1932 -0.0126329267738877 0.025039438503553533 0.019518790164371295
1930 -0.000984588035091198 0.0019701117672680014 0.0011264471118958186
1891 -0.007760616840208089 -0.007018765211506353 0.0035368340653187343
1893 -0.01677347460992688 -0.0015220840740417325 0.0013099849177682582
1892 0.0013091244215704516 -0.001498056544095655 0.006931375007029851
2650 -0.0010228605026159092 -0.006152987387995174 -0.001473311564723114
2651 0.0013157096997919616 -0.010867139315493457 0.005134317892550359
2652 -0.0034533438278702834 -0.005769595795527072 0.005568540437587397
2656 0.0010094253013599077 -0.002727219327553442 -0.007486655860296741
2657 0.0010493618156030672 -0.004177636398722485 0.003301895079888987
2614 0.0005360960341563432 0.002225914997092372 -0.006788802994929441
2615 0.007392788420620231 0.002245242657679414 0.014430587858068097
1688 -0.017140666933108686 -0.00111315545976761 -0.02952595164659156
1953 -0.004872386467276641 0.009221286768152013 -0.000961827981225209
1951 -0.0015307021857907924 -0.0014632648122248578 0.0012124971436307107
1645 -0.0073466032736601156 -0.00585038043880829 0.004476205697699445
2658 -0.015912164914747864 -0.01612058346329989 -0.009360439547915444
1647 -0.015245151031067461 0.0007970866452577171 0.02789572610222418
1687 -0.001923521310528378 0.006063586448444648 0.004419247103691549
1689 0.0053147300851245196 -0.0026666207521626258 -0.008165765434900815
2341 -0.0031542266003731605 0.002631567337407637 0.00019371481741294318
1831 0.0016180366169470624 -0.004751148880984743 0.005156603358118604
1965 -2.056850798521854e-07 -0.002688176152033208 -0.006505764703163324
1833 0.004723737446102484 -0.005011096473680896 -0.01619489388006452
2340 -0.02517698097105493 0.006420651590365085 0.003554648643043388
2338 0.0059577563499950085 -0.0034733999400640907 0.0024895173360507594
2689 0.002373904841716737 -0.005956881534220045 -0.007197649086175661
2690 -0.01687861343856357 -0.017608194371840243 -0.009166222242675
2401 -0.0024216892604042276 0.00038492813034700097 -0.00033044260752784657
2579 -0.00620110187543235 0.011712311205687885 -0.019834302015643977
1003 0.014964219570767977 0.01198361093481031 0.01521228101334684
2419 -0.0032089118794178823 -0.002502174495666487 0.0041153302318482155
2421 -0.0028213097873384914 0.014177500316696283 0.019053902630213195
1376 0.0032817463385071874 -0.007842365733758086 -0.011472764866115013
1371 0.014372178148725184 -0.019343457409208533 -0.012374139302732632
1373 -0.0057898645373567715 0.006360756213020402 -0.0026194976102569306
1375 -0.014880802952805321 -0.0029385060170856927 0.0025171949463512287
2833 0.001755700022667171 0.0027248756998498407 -0.0030782637715348854
2835 0.003883738353588715 0.002896126075984516 -0.009545809230529636
1370 0.003810638243027345 -0.00205923956846804 -0.008176447629370111
1372 0.0017580164343520236 -0.00012414990922609805 0.0005309639622138624
2834 -0.017314406638939937 -0.007169056547635268 -0.01150910519228839
4422 -0.014590714625092689 -0.0011491788674103235 0.0004204949324141358
1368 -0.0016363414599231674 0.003112675267798464 -0.008700627723494253
3067 -0.0013573981533946868 -0.0024440341930460053 0.004104030095220078
1378 0.011909464950883832 -0.021557754919744498 0.015358204160697749
1377 0.002995521522295789 0.001819938698470267 -0.006805214917223048
1379 -0.001433523943198737 0.0005885368943226528 0.0012501435803117722
984 0.008512156177308217 -2.6016621056487734e-05 -0.009042073762964021
983 -0.0044960586098985525 0.005855198439138434 0.0018179202195355393
982 -0.006376257377516455 0.0025868876895107935 -0.004945417975551441
986 -0.007648319040298761 -0.012230999380385023 -0.010480319391878337
2550 0.001870987006311769 0.002134357800266908 0.008150930976572315
1374 0.024274690312539947 -0.017832270428529248 0.007590435970725981
980 -0.008370457988801573 0.0029116258602478124 -0.003037825244881201
981 -0.020925752710978716 0.001658159752833671 -0.02286698032946607
989 -0.005380029679079031 -0.0016486539015150153 -0.0009882864591744956
987 -0.010277953373574534 -0.0005988160012337749 -0.0003014929783574504
977 0.0034868554287229765 8.858441284913543e-05 0.0037313408150258932
978 0.005906395022101812 0.0008174100331974316 6.510512360608989e-05
979 0.018575704166487482 -0.0004643306995489062 -0.0021843991802047544
1269 0.008843114126408601 -0.022615713423664127 -0.033882560591965497
1268 0.0008382682500450767 0.0071561156695765455 -0.0007287876734305892
1271 -0.030445033144032227 -0.008371594377336878 -0.003942448916424332
1270 -0.004437190505307977 0.007217649707028836 0.03143429081643781
985 -0.01602711616231015 0.026081368948259475 0.014564028071602992
4441 -0.010202625127056001 -0.0014606748930484851 -0.0009436537492704494
2861 -0.008759776413984361 -0.007515157150583191 -0.0036210197911115466
1719 0.006568911193327088 0.00026073020853712656 0.00041895648810165003
1151 -0.018353868136845385 0.009336711700851529 0.008484923150902223
1454 0.0010158372380331116 0.00031428902132823257 -0.002487216615345572
3882 -0.0015073391937339942 0.0068397042861966005 -0.006487895963475022
2858 -0.027711801655654587 -0.005588266431658215 -0.009080462386025034
2857 0.001518141327201821 -0.0022086082659318195 -0.005100308443156305
488 0.0037921555831320277 -0.001454487372085806 -0.002926786123229558
491 0.0017019124284446334 -0.003938351211744441 0.006184356710826075
489 0.029187655447610303 -0.0003928830046974955 -0.015280084763254442
483 0.0004305842353149804 -0.0017253066749357466 0.003018660202539213
482 -0.0004113552708385359 0.001734600423470618 -0.0013566817340171964
492 -0.002045288868729104 -0.001872173708356313 -0.01097956483314262
487 0.00031255695239935883 0.003536908044978294 -0.005978614483526437
490 0.011345831353751489 0.009632059665086434 0.0057416297221495795
485 0.0008115338535355185 -0.0037685964562003526 -0.0067790957928550765
484 0.009461097209375314 -0.023062741264632817 0.0077582828814111325
486 0.01650075453878419 0.017247498283020055 -0.02543613589344347
481 0.005493312396914614 0.00013281834039632347 -0.014872977078081452
494 -8.473957410077735e-05 -0.005547727165322983 -0.0029430092844889813
1952 -0.007078203954803995 0.01589315232562098 -0.0008667952733383275
2859 -0.006716392914733534 0.020338698611530818 0.014974497718190915
1746 0.004664762960032247 0.007859632440103063 0.012636157021012938
1744 0.001423322117156884 0.0016973513745068192 7.127860936365133e-05
1745 0.0006231799668650652 -0.010573936677547413 -0.03148016673261473
1679 0.005948416907633212 -0.009017767076764898 -0.035650291568491164
1678 0.0005636259382464487 0.006996696538035831 -0.002634597740754613
1680 0.0015240178325960719 0.01719447471612803 -0.004340760134758135
2905 -0.0009604013499540253 -0.0012991812421233556 0.006994896238328389
2257 0.00023117384473233821 0.004605364785115678 -0.004307999199478364
2259 0.0067732406237243845 -0.014839657023760193 -0.008272109666270608
2907 -0.0017634688445915786 -0.0012102537971297605 0.007962332472370525
2258 0.006951209984440173 -0.00776548410411249 -0.010817009649971763
2619 0.0009545342841765224 0.014781390224678607 -0.00027253272433331536
2617 -0.00259954594272534 0.007794283299834645 0.0010256296865756977
2618 0.0004933684987062549 0.003006222590663238 -0.0039842732423636265
2680 0.0025547841218294728 0.004497900599631502 0.001416767201801087
2682 0.0071673762878809895 0.00747247899723573 -0.007120863286058971
2681 -0.0028397905486108907 0.014347911141732315 0.00020534594300806671
2595 0.018260002812127835 0.009551883790729888 -0.00957270220340765
2238 -0.02939735378989599 0.0042357559886166945 -0.010286151684579841
2237 0.004152068914885728 -0.019009032211324085 -0.0073567622531802625
2236 -0.0022512005661502795 0.0025192399737608197 0.0005221536176521098
1550 0.014971832543760806 0.022986057422899744 0.013915854285475085
1960 -0.0018153051169423197 -0.0023883884718798923 -0.003457590083652373
1961 0.027823277770088275 -0.002122413207778307 -0.008006722149590502
1549 0.0016743154322385269 0.003094925336471845 -0.003388975406092142
1925 -0.009102374352439886 -0.008477971650658191 0.0013998392629498593
2217 0.006328705702240707 -0.005885195309909248 0.030396438389310203
2215 0.0037936040142509068 -0.0026983558038464945 0.0007524302899719119
2216 -0.037954636279174996 -0.018854631545146824 -0.012837804910625479
1962 -0.017662179991367575 0.007077354431232784 0.0009823563193766603
2339 0.0016795949023583204 -0.0024363717534043225 -0.007534278517286634
2906 -0.000988403655341475 -0.0012928987151661273 0.009878633579933656
1551 0.007294991783235773 -0.0017890553187806541 0.01642682136093148
2141 0.002097577393883884 0.00572764046815586 0.004017923017357455
2067 0.02978937188988992 0.00152226457731455 -0.01445861981717542
990 0.0017430323379662251 -0.021009026961110754 -0.001008196727821852
2066 -0.0021605682502501104 -7.121929087368124e-05 -0.014311225813564232
1920 0.005181068774424168 0.010049095011928274 0.012709177902805315
1918 -0.0016528945984878815 0.003999513649963929 0.0011565738038016098
988 0.02469533644894639 -0.010167317303938288 -0.017402691026524288
1843 0.005315718027852847 -0.0012460635874879692 0.0014954643403739265
409 -0.010107806251563925 -0.04071282194815767 -0.0072326497821079165
2520 -0.007526791048211341 -0.010965057003054172 0.006987612501833564
2518 0.0006867597369512224 -0.0030252084315826222 -0.0017175004043555487
1926 0.021165636901330054 0.015541000167296459 0.004881211573399229
1924 -0.0007189682971199654 -0.00337188476056976 0.0012667292943247485
2519 0.013791462786380769 -0.007126104870125608 3.719515280845943e-05
2598 -0.0037940298097569017 0.006484211547277369 0.0018643620438758242
4058 0.035106739082235855 0.01759791614159097 -0.0034362685930607283
419 -0.00136460771826139 0.0028771206624551753 -0.004984083929371124
406 0.006560523381791257 0.00978064838979116 0.008725662927447326
407 -0.006172337106611109 -0.003601091208593063 -0.0011655271562557394
1612 -0.0031435283885595544 0.004191634760804088 -0.0010180955080503543
1613 0.0003289408673066643 0.00543376199907773 -0.00015357010936413448
1629 0.0055703639926959125 0.02356765225710545 -0.011828369116852947
1627 0.001973098910959564 0.013612767081669072 0.00018026808584344425
408 -0.00024205314319230325 -0.014041436568740913 -0.009798581497634235
1614 0.007202940868379593 0.014694316547719095 0.0015677081916849929
2749 -0.0030114240410867403 -0.004460609714176474 -0.005620458875006275
2750 0.015003555633036195 0.008810572634858103 0.01205075342821286
2751 0.017280955470026525 -0.0062917355547861716 0.009525412547239346
417 -0.0017919201724986887 0.0030920729124947668 -0.0026767726389412706
4292 -0.01922844765952389 -0.006864657502263747 0.0004916980969525545
2309 -0.0187786445232625 0.00017160972151414173 7.515853438129543e-05
1845 0.028903866209994522 -0.006479660039442601 -0.0006080107312802903
1947 0.0029456012037897277 -0.011760949731068742 0.019740582445632406
154 0.006458896926563993 -0.018753618026687815 -0.0037090723998950506
2759 0.005825382370384676 -0.006703945122820371 0.005549899948614407
2100 0.007662792478327641 0.017579113752192174 -0.01779446879363241
411 -0.008156972326855201 0.001974625876392533 0.009880224074829108
410 0.0037952197107938212 0.006030688298487708 0.0009301622172139708
412 0.003070389187637228 -0.0006948206861700331 -0.006017036308524774
2794 0.0025094221982754493 -0.000277554582999053 -0.003239393112140778
2795 0.0065845393968743445 0.005847410639803558 0.0008937855792324814
1946 0.0020775202047555834 -0.006723365340666349 -0.0302271674041372
1945 -0.003430470813595853 0.003007402113670656 -0.007588076325469397
2796 -0.0034951477560769997 -0.012613546276792106 0.007089118072687146
4291 -0.0014794642853013325 0.00010544094540326112 -0.001945658537270918
2065 0.0004997236371057094 -0.006771943534850986 0.0008107540275212312
1919 0.004934125257955353 -0.009360960817287206 -0.0006875110169819895
1628 -0.0046968140978666416 -0.005492701062819544 0.008607396548148152
2597 0.025019891479833297 -0.020470674670538723 0.0025691777216711722
493 0.0016334994802201168 -0.0025481517160631513 -0.003880085433354186
495 0.003958077069617196 -0.013173078951073254 0.002967236584483823
142 0.0032657585136539216 -0.00022906942165778094 -0.007842401475539749
144 -0.007936781470310203 0.009702809054131976 -0.002237105914133519
146 -0.020166244599217523 -0.00730825330716806 -0.001726902127056711
143 0.0007119445753852267 0.0014436316561829443 -0.0007448801604355491
145 -0.002965995686361661 0.013514330976513951 0.0013288708384628417
141 -0.011887191144042025 0.005186119791558884 -0.009653388019460129
139 -0.011453159124092609 -0.001456032679985248 0.004660361099100613
147 -0.002107198275462403 0.009238143752689948 0.004258596575377276
140 0.0009978549326376382 -0.00011048485648476014 -0.0006602385127884127
138 0.006986472956643024 0.0006117937377867276 0.000617354694118201
137 0.00842742207441727 0.0003614975097251658 0.00233813343497327
148 0.006059160556744443 0.02191466465244947 -0.004578936565154739
2335 0.002274100517277747 -6.05739059816877e-05 0.005716268781813611
2337 0.002878279393380892 0.012780740879922542 -0.028820254794222046
2875 -0.0010157076249100786 0.005559811217454701 0.01226451411719329
2336 0.0003157831170581096 0.04244771614781443 0.006600954033803397
2468 0.004260854109696801 -0.017057318740894865 0.013953567161730447
1704 -0.009900059198150991 0.0021463491831908467 -0.002458906033646866
1702 -0.000866935033563448 0.0015435556875004824 0.0017200560478104684
1703 -0.014623721924552661 -0.008624133817805099 -0.007029792719684225
2478 0.0020057755932893014 0.0009830734953128533 -0.0013627374524415343
2476 0.0005121980852270126 -0.0014327613499324997 0.0028230299737898625
2170 0.0019057574050637303 0.0009743343664188575 -0.005612177448690828
2171 -0.0008717403597599628 0.004586066796756113 -0.01599263478557187
1851 -0.001145675973393684 0.0014390337750987854 0.035364001630244155
2036 0.007779935020822758 0.027753170161191873 0.0201427626455298
2037 -0.00982398558347687 -0.017949222930473942 -0.011458510292229666
2035 -0.0006213945418031094 0.0066009672618903845 0.005841899403564265
1850 -0.003124950763954329 -0.0024951883315517997 0.02435739962885128
1849 -0.003154164806629494 -0.002175073699998248 -0.0008746985089305818
2068 -0.004376401010726386 -0.0007537619239078588 0.007474655092332391
2070 -0.011728907114353121 0.003050409134266978 0.0180814456360023
2477 0.011343612059910456 0.005609383941119035 0.02780043029630938
1518 -0.0319193036449198 -0.011678397668552961 0.0018525500713766363
1516 0.0013286647420501507 -0.0010421258991827982 -0.0011192422776432785
1517 0.01075913456142065 0.0022060336875739635 -0.0016689183720251179
3818 -0.0007624650148911526 -0.007267349157848053 0.0013155991823962704
2530 0.0031720063184053674 0.004366587367754646 3.44086452085529e-05
2532 0.003659848739659864 -0.013256981519897579 0.003337176450375762
1743 0.0046673749232802 0.018276544806887115 -0.007591256977026529
1741 -0.005678602855838395 0.00220944742433802 -0.004652846080233649
1742 -0.011663162210037813 -0.00425715522555979 0.0021118994838623304
2877 -0.0035692040026204 0.01174093166432408 0.0013760416010042465
2876 -0.006554802186683071 -0.009135600362937814 0.01460795077649215
2069 -0.008716814450267068 -0.009995156165222074 0.00455412414779402
1844 -0.0009904348259728313 -0.003734965933161079 -0.018938830521404926
2135 0.010045746861378855 0.008387393984853846 -0.006034377838647854
3185 -0.004959359436862286 0.011821560478939473 0.006635990318110441
1884 -0.007751456457772865 -0.013255554286191351 -0.008909481067370693
1882 -0.005811104967207651 -0.006265573887950938 0.0004557399129494407
165 0.008583783385775957 -0.004454706678741235 -0.010965279908421182
1717 -0.00519457032442206 0.0062392853156129175 -0.007485023034052329
155 0.00015690290804379534 -0.0067430372302011874 -0.003687903639599817
153 0.0025026872652191843 0.0016923851652862038 -0.00685866006734426
157 0.00017091337549456827 0.0024130228361377015 -0.0016372494729615336
152 0.0006310732287844883 -0.004006047492089648 -0.0011364750474548674
162 -7.45574660456965e-05 0.0005189527702313548 -0.001416199983387807
164 0.014530446518273676 -0.003700888039383852 -0.004277882917598089
163 -0.009081255031682679 0.022655140697894257 -0.007726424570583517
151 0.009168230319741517 0.009894566048297849 0.014290798477524794
4269 0.005556209213026767 0.014123569931729108 0.007438784143093062
1221 -0.023750447183160054 -0.011835372523688948 0.027431708012774458
253 0.012541839555613273 -0.010571805568699808 -0.011687280298632653
252 -0.008330401910781894 0.0033812279358220705 0.007245242797395682
583 -0.012902540609549002 -0.012364940888876817 -0.019520283242597476
2165 -0.012805419594043781 -0.05733064749662691 0.013650888926749148
2605 -0.0020007139782927466 0.006775115894196798 0.00271860655800868
2136 -0.03943873779289036 -0.007269802888261675 0.013831659981185383
2134 -0.005936112279332039 0.001305859120565499 0.005700351756007471
247 -0.0051041130416871585 0.0076089718005667 -0.0019044207934638413
1883 -0.01673473781906227 0.013960121011432363 0.006769418106677133
3212 0.008857392494684627 0.009411485352990114 0.014716241197981221
336 0.03621565985982493 -0.010300630853846292 0.0014594024921211924
1978 0.005348674521113458 -0.0013761928061785192 0.004576035048859054
1980 -0.00477668831971646 -0.010442926253184777 0.002591687404585449
255 0.007663944259621534 0.0034782731981883685 0.0015018981790425995
1979 -0.015994227578719086 -0.02241788957947626 -0.02150601639560592
254 -0.00042626312676375967 -0.010259476633779033 0.0012340054682986397
814 -0.0034063178582732596 0.004707397303317786 0.004320546655038716
2790 -0.014050893104224527 -0.02396232033227549 0.002986932315936605
2158 0.005405890826002716 0.002000780874550257 -0.001191944936315292
2219 -0.0059003665440114286 -0.0033850880848130503 -0.010291273062810349
2218 -0.00304201808673853 -0.000234353018470845 -0.002480465305172572
2220 0.0002044368040931401 0.01623970670192809 0.009014672512028662
3817 -0.0008763212055847607 -0.0052679442392664 0.0012337627551972693
2531 0.0055577632892861795 0.010071840171027751 0.002528247640998402
2828 -0.004381635099673347 0.012366299508715596 -0.014262615731302154
2827 -0.006975661967286234 -0.0024093681842974543 -0.002329436732933167
2829 -0.006302393129594475 -0.006632158881291655 -0.014769838209926526
2516 -0.0013647986291480414 -0.006393077979339992 -1.369550437000069e-05
2159 0.011265140641367107 0.008224964373693263 -0.012057009691613914
2610 -0.0074008737780750155 0.0029191024084780732 0.006047036060272334
2162 -0.011148392387011045 0.0016861327280284914 0.001810717163698143
2161 -0.0022101237746028216 0.0056168818056115 -0.0025008636348109866
2608 -0.00665491968542868 0.0008899412968080558 0.006509844903527177
2609 -0.005195184465345956 -0.004778654114112693 0.005615166215226306
2163 -0.018160616434769076 0.0018249856535435662 -0.02383164722936693
1989 -0.0021964055973523527 0.0028046796600027725 0.005769605581616563
1987 -0.001062539058906056 -0.00019191320650993013 0.0028745134247738515
1988 -0.006274578458662159 -0.011250513671831221 -0.0021955457856648515
2515 -0.00404876831660675 -0.007345337879080952 0.001786330791396352
2517 -0.005334965991656205 -0.013991295715456596 0.001004695052707689
1934 -0.0024042487120219972 0.0010115161503306497 -0.007033841719200984
1933 0.0007913311168432489 -0.0003337904357841917 0.000978984772038178
3228 0.002814375681975445 -0.013873439671159876 0.0037284591603493553
1935 0.004914408899802482 0.010168659110129652 0.02709152609213723
2788 -0.0010429658115807027 -0.0023576828007877497 -0.002215778169232671
4124 1.5697361870426574e-05 0.014158557020749439 -0.007497006574567133
4123 -0.006287408879571533 -0.00026457645001887366 -0.007391355716751727
4125 0.01803094609804342 0.017424558539968195 -0.007167282266856199
1860 0.029704140479772222 -0.017507049711012135 0.034252286482394007
3819 -0.006745814198889825 -0.00262663663117802 -0.009299253815070534
3226 -0.002447109051249984 0.0010044245620465103 0.0027568622470940628
3227 -0.011186609056352319 0.008853137072947192 -0.03638909282734731
2687 -0.005723171567880061 -0.01893784664322486 -0.022874273583372413
2686 0.0007472673920222248 -0.00016460778357319964 0.0011192042220631606
2688 -0.005392850990658725 0.026207929579339522 0.0072037060033585286
1671 -0.0030764498095004924 0.012145553698325701 0.011477381490682984
1669 9.504229896988016e-05 -0.0035176026062706577 -0.001296783618374731
2093 -0.0011671425366685064 0.002564085987116709 -0.002048523803445563
2092 0.001840022808908931 0.001066923794311539 0.0005918317516681984
1598 0.004126846302007348 0.0028071024623874973 -0.011631675100891232
2789 -0.013241516089427679 -0.01488231834083315 0.0013638695418876324
1597 0.0003529789866258443 0.0031644072077996817 -0.004961573013254785
1599 0.005532985330858956 0.01817011078702442 -0.016212591716660084
1858 0.0032962820380474708 -0.008110115360108293 0.007541930159963141
2205 -0.007625551776303449 -0.00289799129137863 -0.012211196136139996
2203 -0.0002342674881112216 -0.004157807863362917 -0.003542298010883494
2204 -0.0026759503605599064 -0.019356366495593344 0.003903963335799355
2081 -0.00033942714622055563 -0.026637694153276093 -0.006316722445720103
175 0.004531139863192178 -0.011908340382541441 -0.012007895853180739
2229 -0.006943763223817552 -0.0006620855812221273 -0.0040298741045235505
2227 0.004170831995628402 -0.0015506765184850437 -0.005084516145351189
1567 0.0037971842721587798 -0.0023492627207237038 0.0017238279589539985
2370 0.01785006841601694 0.020918265574455534 0.04159566698553224
2368 -0.0022982228437852096 0.0004412424455447466 0.01103675168563359
1873 -0.0024755727223896226 -0.0008313213757169782 -0.00027294868171684765
1874 -0.014326151324438673 -0.00058187113867791 0.0047116186463275955
1875 0.004830771396509816 0.005775514891460744 0.00828174520999437
1568 -0.00022744150631698266 -0.009633078328259567 -0.004424859242301908
1569 0.0036276934254627297 0.006298529027013228 -0.004003581523045145
2507 -0.0002528863980894164 -0.0008469730873351179 -0.01804335549522439
2692 -0.00592422869887891 0.0026387500224738327 -0.002076798522154611
2693 -0.018345005426727144 -0.016495238179572786 0.009966042311300187
2228 0.026194076000208493 -0.001727610435738413 -0.0073013074427835814
2694 -0.00834638457471356 -0.0009687059798642813 0.000244428373422538
2710 0.0008249814415566307 -0.00456732967490612 -0.005306119465717117
2712 -0.026857723227950065 0.014622164293066597 -0.0014223977469560404
2711 -0.020174501601316893 0.018768433591118197 -0.004719577005388724
2508 -0.0021068837713079706 -0.013817221331731442 0.00840072035210548
2506 3.143040224882601e-05 -0.0071495683762549216 -0.006957337215591941
2667 -0.0040571168803509895 0.011461075005405824 -0.01394228704536171
2665 -0.0009292713513428244 -0.0008922280744920511 0.0058204573198928035
2666 0.021532708363662126 -0.013880093014055348 -0.012603698677601053
556 -0.002303764022718163 0.011081493004800403 -0.02731192471410506
124 -0.000829694007805813 0.02734459554293562 0.015739290271957133
2572 0.005482236598119098 -0.0025755942555433313 -0.002922849989247392
559 -0.020607257185911172 0.012624707135117418 0.013325275248338847
558 -0.005693199601304105 0.0006404168295525972 0.0034357475882085655
4247 -0.011286948048246018 -0.005332189178622845 -0.002722298650022114
170 0.0012943958942749488 0.002811728541278019 -0.0036839085150222038
171 0.001582814770184236 -0.004986589219833816 -0.00403127292348853
173 -0.0034413162695310605 -0.00628955217493942 0.007713137127608132
176 -0.007939794234129152 0.029086302332664054 0.007026762083181281
865 0.013512104687943885 0.01219197024151372 0.0206369632228798
2533 0.0018390229701791504 -0.0040728137837164 0.0016912577134570626
2369 -0.009890263272405603 -0.004017638145703672 -0.0030592963287380936
1859 0.014978533411023438 0.013502647415049448 -0.013860834758612484
1451 0.0009191641162720512 -0.008299601700569403 0.004178116289625465
579 0.021871525431372246 -0.004323243282855541 0.027374782328937253
786 0.011310785963286813 0.006949077131989172 -0.012266464532367878
785 0.0038642984294536614 0.0010955152584921572 0.0013099364602410372
706 -0.01048327515831946 0.011824905228383796 0.01640257471553276
46 -0.030494243863090742 -0.000926919433247136 0.00994290489051803
49 -0.012041359271430673 -0.007678971774013566 -0.017559369379164143
166 0.00676146476997332 -0.00632717128108317 0.026440739884009596
167 -0.0008235515930422858 -0.001806812488379966 0.0033035405925337176
2286 0.010331310289617417 -0.029259681234606514 -0.008426921937631287
2284 -0.003667914793861449 -0.0003313921050417508 -0.0030949271985139843
2285 0.0049155442866340195 0.0016208562232076825 0.011906503238838406
47 -0.0005114608087350122 0.008648805918760459 -0.005360567691396335
57 -0.0090686261273537 0.0016442897060961084 0.001189937343127635
59 -0.005876898931286602 0.0012146603272885016 0.0020008693305394124
58 0.005819662307359723 -0.013151014748878316 0.021605927818195505
60 0.0030446981556355294 -0.008701801672419353 0.014897736991420184
52 0.0014625242106055972 -0.0026707663478053095 -0.009212490593023188
56 0.014015673229377957 0.01014650939463748 -0.007370877615296411
168 0.0021996139005148858 0.004758486735061965 -0.001392997611561495
50 0.005699098471354243 -0.00679000304960588 -0.002671012516804424
48 -0.0030144745873158492 0.00452756150295169 -0.004800513756551135
51 -0.0078115864219160626 -0.0025306355409991698 -0.011938493119816316
55 -0.019173229042911 -0.0034217925567362026 8.799258737107957e-05
53 -0.0058322336678719305 0.00500053952796966 -0.0013300158481924223
54 -0.016552003918658447 -0.02317335477794514 0.0007554130673490751
1938 8.979472678762161e-05 0.00024223677595705211 -0.006349694623799487
1937 -0.00932213484133811 0.00010324835955630931 0.009314744255613008
719 -0.00029672623342311675 0.0032045355032389537 0.0014540962947730922
720 0.004278585530439542 0.00514083076378007 0.004173193256867457
707 -0.005943569417411002 0.002668161268713044 -9.370627419865736e-06
784 0.0069315078508675725 -0.012629811240975876 -0.0074164112334572
783 -0.0060820443248139466 0.0007043916486218613 0.0022412053332807017
2918 -0.01730106157594925 -0.007853016902816356 -0.003678631333908357
2761 -0.008795561556435976 -0.002809945453348949 -0.007185972051547105
179 0.008758112795077112 -0.0016406799585425495 0.00730483849237485
1740 0.019491108569563473 0.005319997552467076 0.015255734419587556
178 0.00603075259536149 -0.015897564006388486 0.005011554543668201
180 0.006998178386607954 0.004548388447776125 -0.0022066471877053248
177 0.0025630193335950554 -0.004324551501066378 -0.001366967464509462
1540 -0.003546091217423903 0.0028249770405763125 0.0022293386578638888
1542 -0.02971089249296525 0.04142961022073375 -0.015440644350438352
2804 0.0031881716823859503 -0.004204640081537501 -0.003029273177969254
3420 0.004202694494917519 0.01988712993135164 0.010119411371290972
2803 -0.0018913758097750025 -0.003719198616309443 -0.0023818253032991395
2805 0.03165294869579882 0.025677283954096852 0.009478423574479472
1936 0.00020780631420735875 0.0018255426774484878 -0.0014742488374510582
2527 0.0016363900072271758 0.0026780241430828054 -0.0019171583465370822
2529 -0.0001478915570476531 -0.013040061772541675 0.005637785122446173
2528 -0.0003985047329978905 0.01677144518064955 -0.008536087196432663
2013 -0.013655113069850127 0.017661351073999985 0.029214595131415954
2894 0.023753178625813644 -0.0037605480951825535 -0.00963434072014412
1529 -0.009368460401106218 -0.001710893203501676 0.008186710700240811
2240 -8.803370417928085e-05 0.010331860834684545 -0.020142099429427313
2241 0.0009678879889877693 0.008310420210777927 0.014680567054657515
2895 -0.008387626341085905 -0.0018233640773260204 -0.00144257476648953
2011 0.0018994001824576355 -0.0012917872557692708 0.0059458434671170075
2012 -0.01520957104922457 -0.011790225175658708 -0.03533880509519778
1528 -0.0007099751566515588 -0.010144301788259896 0.0030645320544503618
1530 -0.005482554569896028 -0.007052975648655802 0.005195923938826207
1604 -0.010837816299299783 0.02106231835583076 -0.008560993771495457
1603 -0.005606365903809584 0.004804014167830407 -0.0061990834013276675
1605 -0.00021777892573414086 -0.011744863958644535 -0.003801820416867387
2239 0.007007641802959245 0.002939019246431748 -0.005432175537881448
3631 0.0008668656039212201 -0.0031345436144941743 -0.0013393463091031918
3418 0.0026082712341260225 0.0009856692704301889 0.006058414415453488
3419 0.013836224039281525 -0.0016745218402478296 -0.009758873735269626
3632 -0.005553746131251561 -0.0062767719295697 0.0024430876062329784
1738 -0.003913150392866585 -0.00755884746464148 0.005655074416323891
848 -0.003835271734672464 -0.005432749134242939 -0.000591196991169887
3346 -0.0013390441166971213 -0.002122964790027786 0.001537066279328025
2574 0.020101199281531007 0.004627125559926908 -0.008253135403552757
3880 0.007838366428369064 -0.0011476692633916265 0.00015507717643058438
2737 -0.0030999264024977502 0.003054040717724047 0.0018292301198454073
2738 -0.0009349042314477823 0.00552367962874569 0.0006904237785869826
1767 0.00021237844239798846 -0.011535300007148216 -0.0007444130065351785
1766 -0.004133549488316656 -0.0031497404361512747 0.007567994260831366
1765 -0.002925188305683709 -0.00757630998491037 -0.004018437807044416
851 0.0021712813633378483 0.010493882467516815 -0.019141291441167694
373 -0.007929316513234579 -0.0005482467603259956 0.002202580812789824
628 0.020850441008856597 -0.006043245911894735 0.010617167581651038
2045 0.010590707410235352 0.013509567262690815 -0.02572835680899954
587 -0.0016009297157823957 0.010059310055350107 -0.001956272086146701
1963 0.004023144750169707 0.007132668473026767 -0.010931080642632858
2663 -0.01105658602912813 0.021298627295928307 -0.013487572832708902
1964 0.000149792705693389 0.02297939829362128 0.003621412816763576
2691 -0.0011291251981701295 0.007772692559299442 0.010406667370223869
1822 0.003693547785936306 -0.0020285521301412297 -0.0002666450392653284
717 -0.0034636526777981386 -0.005209764762997854 -0.0024732811512518955
718 -0.008014355659757555 -0.004857980996444485 4.2989128654809175e-05
712 0.0008248781734874304 0.00023486623150575635 0.00076563858352385
715 0.009498555508612668 -0.012555368855743626 -0.0022654926360774047
1823 -0.01312649716688723 -0.006679134133904998 0.01395038044023986
2662 -0.0033985291835820592 0.004287953739359451 -0.003630324871125385
709 -0.004395744602719781 -0.022376053913366025 -0.01588031927549683
708 -0.008245290864833804 -0.0026131981032484273 -0.002647670072069873
710 0.0015090730611892836 -0.003141092714288133 0.0059600110459082575
714 -0.0013322125469584969 0.006057039137147693 0.009362207199156326
713 -0.005283861835716526 -0.0020069106192421816 -0.0007202680199124956
716 0.012336289793584925 0.011348083250207178 -0.012064513500592957
711 0.015487817430175672 -0.01028746379958294 0.0021891255768246016
2664 0.00673592015893092 -0.013365863791275882 -0.004640425702776593
531 0.005504941571735623 -0.014597600385140928 0.020272220525571875
535 0.009528054785112133 -0.003887406276500982 -0.0012583920804465874
533 0.003005541749148717 -0.005095969305538703 0.003547240074337782
530 0.006865265264708694 0.0024716935694885727 0.003352853577770736
532 -0.005076769146238008 -0.005285100207659757 0.005457469684512097
2144 0.005456593629018869 0.01604124395672821 -0.015563393482953658
538 -0.008528295206345434 0.01671323632538929 -0.003719638070312389
537 -0.000356801993337256 0.005643166177677416 0.002800609843229334
534 -0.028663339655788687 -0.002232996923437635 0.0027112947759235935
1824 0.007805306826236259 -0.005932197255458561 -7.022165553732076e-05
536 0.0007798227030631422 0.011430800646340854 0.019941547708936403
539 0.005544474752489363 -0.001442512511767392 -0.004919224520279989
540 0.014081202258666341 -0.021882772289919354 0.006663841591683831
26 -0.010266175747813787 0.005511700375001971 0.018588701391235293
1580 0.012679065562926412 0.0034088394957571865 -0.02248565439136301
2420 -0.0049503879186334285 -0.020998534258108173 -0.0029732903613293392
392 0.007732137021219105 -0.004828172343597719 -0.0008078369440534828
2164 -0.006610743297871946 0.0021207563611592155 0.007568137319996256
397 -0.0014982048136154558 -0.00041764674750552095 0.004151090507500766
1579 -0.000355068342799469 0.001843089814283316 -0.0021090737362674692
1739 -0.010581288586544895 -0.010192256494624526 -0.010473577931598288
2860 -0.0021145182831618977 -0.0012493908221919902 -0.0005807913566095593
1541 -0.012780259176926498 0.005249432780304132 0.0009350342350024916
2005 -7.597096279164179e-05 0.0009418215830833529 -0.007724745050644893
2007 -0.014486000246589801 -0.018239917103192154 0.0015409586450091963
1539 -0.016497712850773474 -0.006640116741718385 -1.171045923213314e-05
1537 -0.006667016387487707 -0.0001016031092550905 -0.00035269099076381177
2143 0.0026625694567870934 0.005025743353468938 -0.004627939042446091
1538 -0.0060319334063490705 0.002206751618273944 -0.011393166807317652
2862 0.003277222278788617 0.0018029648442233212 -0.001321649509194883
1714 0.0004502761507337031 -0.0008151666701973185 0.0010862296555275526
2024 -0.012571759297726325 -0.01563477845205061 0.01431433975299096
1581 -0.009197862873526032 -0.0012181030544529848 0.02539212530724166
79 -0.009158184174326066 0.0069211470226579214 0.017906846948573744
1716 -0.005959191810134913 -0.028781717500039043 0.016190987672556823
1715 -0.01708398677244756 -0.014361343694614757 -0.006250396044345486
2145 0.006402703770822229 0.012215775632086477 0.0208740361466407
2914 -0.00018958932935370717 -0.0016241840275303292 0.0014700052102160097
2916 -0.002925430135257791 0.00021540452894945963 -0.01627520664507553
2023 -0.0032590143554267616 0.004449797555037965 -0.004630009559089376
2025 0.001119745136708822 0.019042380991705393 0.012864815246094249
2006 0.024376613207866094 -0.00348159428924283 -0.0016252632836743007
2915 -0.0014703285948199584 -0.0009963614549520692 -0.007423955328941644
2131 -0.002270382407779496 -0.005054007974458506 -0.0004996207361399694
2132 -0.014711563516952592 -0.01358232132508575 -0.0128856633261581
395 -0.003929640271756967 -0.0005729778724221034 -0.002251270586673685
396 -0.0024616262487973206 0.005468818043119533 0.021977783354986485
76 -0.020659680505887495 -0.009796842275899362 0.009940961248359853
77 -0.011211507298519432 0.010138436316331101 -0.003330892870239598
416 0.02736163979689099 -0.014969601194093502 0.001393256257217904
393 0.006041657356410723 -0.005278434040318885 0.0030823235605661236
394 0.016898817115005675 0.0017237283226843754 0.0038030932256155215
78 -0.0010799201146359239 -0.004710795744999911 0.0024401137934186913
89 -0.009724209026508291 -0.0042596839001860735 -0.0004984873328803503
4267 0.0013166881611631628 -0.0017277753144455243 0.0008828929262447037
480 0.006824031844748265 0.009943813782669621 0.01181215274232766
466 0.004338148102931243 -0.009010265459093355 0.003559988520453803
477 -0.006551652988935368 0.009004907091819107 -0.006296255181513552
478 0.023251242027645613 -0.00612958236735523 -0.01071334874312622
285 -0.015267576420511525 0.00677430472126131 -0.013348855832249167
283 -0.0021056216658920097 -0.013329599166263017 -0.00845423305872501
479 0.0019432956026728277 0.007198299593379773 -0.00035997956036717385
1502 -0.004857937379578401 0.00947871675660782 -0.002255376704758148
1503 -0.0013089941172587595 -0.004318504235459178 -0.0013234580567323799
1501 -0.008098669226252742 0.0031808927661127434 0.006190463683497018
2593 -0.005044653052540238 0.004074817969768332 -0.006166289258101383
2594 0.0030115051720068418 0.005044913065824422 0.0032627960224160956
529 0.0006280309757491805 0.01715496505740681 0.018292454263627557
528 -0.00467380304868712 0.006417642096979918 0.002816229796355992
2328 -0.03374711718857391 0.0004506106593392645 0.018928238069313267
526 -0.0031390444605310782 0.000200094749553081 0.007825858521233029
527 0.009736582773305458 0.0010360384040501293 -0.004545837912556736
2311 -3.04695933805866e-05 0.00028275121725038243 -0.009260087677549664
2326 0.006118666012458659 0.0019794998406079244 0.0010124189314319923
2327 -0.005740602807765069 0.00019373350798283456 0.00821169463592349
2345 0.018649625020354575 -3.947798857488078e-05 -0.008095523065223171
2312 -0.015505190699084145 0.008853546426161603 0.006627114616384188
2313 -0.010119333099506776 -0.014883280030768664 -0.020585294149950237
2344 -0.002479048504123418 0.005475961691423209 6.714705528278134e-05
2931 0.004622643008668629 -0.017433399175660273 0.012533507942954145
1785 -0.024117204001240303 -0.02209244684125919 0.01275040788021697
282 -0.0007680893358466802 0.009213664846314841 0.002946930094594499
284 -0.003506327761016866 -0.0037127549902758873 -0.004233974236220341
271 -0.010925005072477133 0.002200581927733552 0.0021298941460861443
272 -0.0014868823330722622 1.662336139521951e-05 -0.011944123332209405
273 -0.008081776018901091 0.004698192544621128 -0.0023703132993299473
274 0.00018239749658497854 -0.011344902933701204 0.0002640577449844033
2142 0.0004566772733035401 -0.011339396733533054 -0.016662362037110884
2140 -0.0026011480041295567 -0.00712344188886842 0.0031750157676409276
2346 -0.0059070853203203166 0.01649232231894997 0.030393504332128264
277 0.002036429356949222 -0.006023846150827279 -0.002313646545407636
276 0.005850680958639878 -0.0052710861849643 -0.010325527060502791
275 -0.0001239697059241668 0.00022330359743130647 -0.0036297719117319633
1784 -0.006168031361411437 0.0031349223061858163 -0.0039137599188852745
1792 -0.001299174234739763 0.002061327659332347 0.0002907402255394649
1793 -0.00038628942015982403 0.014707859683099022 0.00264871163518168
2029 -0.0016936566282667218 -0.003750447802415202 -0.0033022384655194666
2030 0.008450101693049357 -0.011872772482935114 -0.011259483194250517
2435 0.010363445497929447 -0.012543348574832766 0.00488405796331031
4 0.011637203349792397 -0.01336303145943391 0.008568253125207247
3 0.0043497021270420665 0.003108965704355452 -0.0017870620225359536
2308 0.003403999312650769 0.0033973209035593273 0.002375538395102176
418 -0.009237893056637123 -0.01092466538080105 0.01198145895513207
414 -0.010588342690546461 0.006064639996852446 0.01097968059847185
1594 -0.0035844922060484594 -0.001737022335239891 0.0026874295366719207
1595 0.003538570509449891 -0.002310545074234249 -0.0012661424349977742
2133 0.004173430294541347 -0.01782916386818446 -0.011101479419908961
2190 -0.003516133780244511 -0.021898200552308855 0.01390312434594298
4254 -0.018124181482100862 -0.027417995034243477 0.0003883469806971286
111 0.009988408101647195 -0.015324594407719917 -0.01569500496813295
3399 -0.004625669159855053 0.007176934162787834 0.0007390916673009497
1596 0.0019945985496423258 -0.0013093782378088778 0.0014657922882167977
413 0.0002653557969459956 -0.0029262190655794935 -0.004089603327859831
1783 0.001267064226970975 0.000387408185547744 0.0008396545820712949
109 -0.003931900216568539 0.0031305778685622116 0.013236087061413368
415 -0.011455237809220153 -0.012723884639070818 0.0036917471163871005
1794 -0.024297081254192814 -0.0006598174535174236 0.017006330733588055
3855 0.005885489115149707 -0.0024249666193419304 -0.0008142207325350442
1810 0.009474066375300176 0.0010884063870746118 0.0021725303689207514
1812 -0.012528061785317807 0.008529153897145732 -0.003061652005128773
2772 -0.00320981957629615 -0.006316019792419818 0.0011549633725535479
3853 0.0033570863021798996 0.0034817391792080227 -0.0007158051069209601
1673 0.00397020559663749 -0.008614983125588185 0.0028023579353076687
2770 0.0029752963847197444 -0.006401500565486512 0.008356186004463168
2771 0.0004520490161350063 -0.009090897807239588 0.011461689858704589
108 0.0033336787035941422 0.004916806523344615 -0.0014729973723923394
3854 0.011660314444063916 0.010186911082876497 0.0010775677757015123
2031 0.006802551212100601 -0.009298968354644385 -0.0033443114734374433
4172 0.008254454031450205 0.003949917403856108 -0.010021374886010046
1811 0.014749207226702006 -0.015347512686628163 0.0017277836682290622
2189 0.007311283183996402 0.00026565969601036535 -0.006788987630556605
3397 0.008827218478805897 -0.005645893301493413 -0.0022875513506109583
2188 0.006105954558287842 -3.11076610119569e-05 -0.001478090988908371
3398 0.007897474166269862 -0.008742911029898683 -0.017150311643528315
106 -0.005015336445765438 -0.00021845616986968547 -0.01048471356313649
1674 -0.008806106314746865 -0.014716066716576597 -0.01923040776195502
4321 -0.0005302508100208064 -0.009916830207648572 -0.0012025503432798543
90 -0.02003233389818415 0.01660514971216539 -0.008207548901851857
379 0.026916627793342168 -0.02280266062774987 0.014569408907142548
1672 -0.00490316608245977 -0.000687767439942102 -0.004885215593942542
961 0.01869082271741608 0.012069464792611735 0.027602755338448116
3019 0.002218051041514083 0.00024248836508015438 -0.0006988995132873514
4323 0.0007935803264622857 0.0037367761551993857 0.0005015870463283892
1220 0.012687517972705984 -0.00739772815076453 -0.007192620834786384
149 -0.003703082705015735 -0.0007809272206537827 0.003951870171241789
136 0.01827232544524492 -0.013887081453786664 -0.013935593038775916
150 -0.03568837502277886 -0.014035954407927667 -0.005767082803931217
472 -0.003384700909071387 0.004989671500202597 -0.008813027587619865
470 0.0002140969117425635 0.00040487524849394175 0.00411855371496077
467 0.000795324509388716 -0.0006984597235831367 0.0012282928558611462
468 0.005674556487952123 0.004926985541975237 0.003698698664912481
469 0.005076700966384274 -0.005013740882893691 0.022528239528892918
2172 0.015156763155361803 0.003349327784722732 0.005626335239095241
339 -0.000402501313142345 -0.0003530839010903744 -0.00792934032800468
476 0.006746945928824439 -0.0032441859783860507 -0.01051138383282187
473 0.0015017059435599386 -0.0005534621258244036 -0.009650433840207731
475 -0.02146568359080864 -0.026303401827315744 -0.009348098141327778
474 0.00804624255076568 0.008237311661092473 -0.0030438971477702147
2930 0.021920607972271494 -0.02212252729451846 0.007202556015698657
2929 0.004752617074351935 -0.001796228699550547 -0.001847432694264949
1 -0.004695500417104842 -0.01111410554911619 0.013241637285785167
471 0.0005548482189664498 0.008962350610284334 0.006652131890834653
15 -0.0030525828529436878 0.007538352333559094 -0.003385257298444836
2561 -0.014137922889496501 -0.010624528832063362 0.01002100635039143
1544 -0.010797879515060164 -0.005890776446388642 0.01327789921549636
1543 -0.0014337216923661655 -0.003106028906632326 0.009039261280411779
1545 -0.012214955247092884 -0.003996249414597191 0.014366185667485185
2560 0.0049298393400263015 -0.0013849253895935228 -0.0007519726819801069
679 0.000537981091890507 0.015291724052031446 -0.013342879088375252
677 -0.0032508020657681424 -0.0007634830680160946 0.0027106383760374816
2562 0.010920271825070505 0.0014191055518918258 -0.0015474109998600005
678 -0.0020528080077798962 0.003352145533644271 0.0010569392977986998
1730 -0.010249267060577319 0.003584828158437427 -0.0033969561438591143
1729 -0.001410059506137965 0.0005442997490054001 0.003780078020106462
1957 0.000579977899927773 0.0007675653021716519 -0.008509498842884098
1959 -0.0026269230385460593 0.01668089334057845 -0.00905151912742477
687 0.0026530086451554548 0.0004757806432742852 -0.00012272607100101751
682 -0.00022035123825001326 -0.0024508896881988433 0.002820385249387654
680 0.003341499921617979 -0.0002164607486400565 -0.00228399298862363
683 0.0021996394747917105 -0.0020153111559205743 -0.0015759911184353317
1731 0.002176726613198475 0.004761985092536571 0.0018800368683549425
1958 -0.002347914693551527 -0.00487815896779276 -0.0237117261748784
688 -0.0036592913037744455 0.002329962725151926 -0.0017920594342739518
1966 0.0008762370002612084 -0.00553744918596614 -0.00618459560055157
684 -0.009505430112730445 0.0057734402819024635 -0.015235293009584382
681 -0.015069307413977948 -0.0011486293151502704 0.01368964989033581
1967 -0.019015153551355884 -0.0012813823446573903 -0.00988459987409743
686 0.011911214108873809 -0.0013975243993539339 0.005106234151495476
341 0.014380871721162054 0.0054651430367446355 -0.0014439740728123013
1914 0.011540642836784108 0.004385098613380183 -0.00826725124857578
115 0.018391798228917434 0.03514550242077401 -0.009030191402080041
2700 -0.021452474119265937 -0.00405144848633756 -0.009432056217169332
2699 -0.0071920023167645 -0.009074004211434597 -0.020953034950916063
2 -7.469986923789248e-05 -0.0016258553877498598 0.0034130558908626496
338 -0.0036244085535161383 0.004903424958804629 -0.006830565091413948
1001 0.007248383699946225 0.0013541416433161765 0.01363116096463661
1455 -0.020703355309392785 -0.0018730796325898034 -0.006662771990729066
849 -0.02294980753004446 -0.012108181712610468 0.005437388728185357
110 0.008808291845859859 0.0005358860054175735 -0.0010343856220910168
2310 0.008537965874164413 -0.01101122611979408 0.019314787751676315
107 -0.004104199319591269 -0.00037847252255441915 0.005216278777059748
2425 0.0005611270559292884 -0.0011111805371101268 -0.0022566145054748973
2426 0.02543137540751918 -0.02637602638710822 -0.013229428777004266
2427 -0.027835977888979825 0.0013072938212401169 -0.016747898897829846
1968 0.011357627950732812 0.013526028675187571 -0.0057748649720606475
120 -0.02989125874865765 -0.025834439046618852 0.0025228881935874773
119 -0.00494391323544334 0.0073728746967876195 -0.002588778304474647
118 0.02604312364285823 0.003870834784628074 0.007111666857911667
117 0.00632721631875684 0.0032548999425365973 -0.008628497977818079
291 0.023341472730510113 0.014530851184548653 0.010670786211129818
2383 0.000945576885812023 -0.005002404329559917 0.002916991067944775
2385 -0.004644770786192693 -0.003548947487562808 0.002419102501922802
116 -0.023881849127861256 0.01650030239878572 -0.007697042260661175
2384 0.020279277848900393 0.0040894254260993934 0.0050312422480181425
112 0.0024793187087340314 -0.0031631675335202017 0.006594422998248577
335 0.0029362734973163735 0.003353342995602562 0.00019043222295850928
337 -0.00030021849495634337 9.57524898697688e-05 0.0034670761490523793
333 0.0060438134634877155 0.0035229463115787605 0.00038061551999195103
334 -0.002169287117524643 0.02068273056364254 0.0009340351677054372
331 -0.0011365395624363395 0.012198600413364987 -0.01436829596997775
332 0.0017331010414046197 0.003727642850912737 -0.007253603354453618
113 0.002916864845100332 0.004866712023226431 -0.008703121146666406
114 0.005658688925388721 0.04240317285004683 0.006205034521716905
1828 0.002074997618873671 0.00044926740215765044 -0.0022540413220943707
286 -0.01259241076293228 -0.01641918297823074 0.0128181751814165
287 -0.0034217103627442237 0.008628217154462985 0.008163158998322912
290 -0.001547571154781609 -0.0053038577921590705 -0.0035685363274997194
288 0.000468500497826995 0.0016774688514436806 0.0016658031337900545
1830 -0.001169273219485616 0.0016677582797408918 0.0011005280388780654
292 -0.0031311585579320957 -6.0585609768720614e-05 -0.004046922831594894
342 -0.00013203904324766335 -0.004650421311783864 -0.006413193870308192
344 -0.00025273756209565995 0.005258581473725879 -0.004099561524077224
345 0.020967884223088522 0.011083174683924737 0.003924751549922038
295 -0.009036485195447756 0.0033354515219897528 0.0025455735410696593
294 0.02606329940632678 -0.011494301923985118 -0.004545311673381272
293 0.0009354715129639142 0.006647494987510816 -0.00443776630383027
300 0.023840773178787814 -0.0008053461857419185 -0.014538923041826546
299 0.002446724043629996 0.006183849820869286 0.0018280908194163875
297 -0.009490344713213009 0.00088953187456828 0.0020351315954378114
1226 0.004801781197775064 0.005654010776669346 0.0063284157778932025
2723 0.0007701799316212389 -0.0009668931937207198 -0.000613385981800748
343 0.014274767213582791 -0.023151953273929902 -0.02124013667233771
3186 -0.003731824338267596 0.005210649114557724 0.0020803632620714978
4293 -0.003095453204313869 -0.001681438993228581 -0.0034738566906704605
1452 -0.0011069615105639245 -0.003506945878673029 -0.003963518370307763
289 0.00027036346435761256 0.0019509864628808004 0.027353666712829145
1453 0.018507131709123704 0.014891899281645174 -0.01092891349685768
169 -0.013216383928352312 0.01082993360355563 0.032110150427313654
2644 0.0005176588572016082 0.0005381894310920423 -0.004371485512119369
2646 0.017234851953655053 0.004233435824004762 -0.005761209723192355
689 -0.0035191190423047238 0.001966819914068211 -0.006740053729709362
2645 -0.021437457231878822 0.009330110764045512 -0.013752150305292171
676 0.011775048575750912 0.005694753225249906 0.0027886863981615904
690 -0.019209605480641656 0.008658336347797066 -0.006849769705208727
2647 0.006046108290978175 -0.0030991609103423 -0.006104973920912079
1670 -0.017407446768288606 -0.01977400343200136 0.004384639938594916
2094 -0.016442681755367505 -0.0009295371059168052 -0.018144693609844866
1615 -0.0019937587539916083 0.0022488758223456456 0.002603130664368355
2817 -0.004145212315975875 -0.00966263212345659 0.014462832427225234
2815 0.003205285976398597 -0.003927674446936827 0.00266174591699166
2816 0.005848998737944418 -0.011273449712119668 -0.005971308272510019
2641 -0.00024774522084486616 -0.006725411095881178 0.004136973110539138
2643 0.007962544470556826 -0.018374812798892363 0.0018187024831596609
2642 -0.0100950975585264 0.009733222711044424 0.003027496738153301
2648 -0.0021184599783878842 0.010874699597856708 -0.009302677640715797
2649 0.038945049291997665 -0.0026182851100807606 0.016463873911397024
2363 -0.0006631687072931286 -0.0029184012051514897 -0.011338604989015998
1617 0.008872807711388996 0.002717941075805266 0.003966780506021347
1616 -0.010783271472099279 0.0029620220349030842 -0.000891277872857106
2177 -0.0026550506566574523 0.0027442565157674574 -1.1593577116176433e-05
2176 -0.002599307849082949 0.00042485310015731315 0.002209366054374128
2362 0.00012108618272560706 -0.0026044314338059937 -0.005510552574528436
2364 -0.0008254646473575467 0.0037368838071695225 0.0004036088347479258
2178 -0.004071288360252322 0.002230552170682442 0.0019182621135872648
2489 -0.009058762125545973 -0.004984726285105394 0.009919772210454736
2488 -0.0010261309870932538 -0.005225092380773407 0.0009293497866644072
2735 0.010035036703855726 -0.0018396559466490646 -0.005993245150345419
2736 -0.010718175421485336 0.012110268758445775 -0.0013985585058662118
2734 0.0033645257894495636 0.003742651578296807 -0.002327948216334917
2381 0.009586040989779011 0.007835353023039185 0.010334785495979031
2380 -0.0015849340121459113 -0.0007370603213260701 -0.0048834641244730045
2631 0.005344593248216758 -0.018345569297926273 0.009255149279263979
2629 -0.0003411780022504943 0.004506897608369908 0.0019183096319596595
781 -0.01302835723427917 -0.010124413342175839 0.0034228968338338374
782 -0.007305473070348228 0.0011418641176223036 0.007573687116166719
340 -0.00011646976860332766 -0.005687425995069559 -0.0051237025283112905
2490 -0.03063604321029831 -0.014875043950595886 -0.018868320550081776
864 0.010522116446355504 -0.004532923572772916 -0.013301645190461151
863 0.003806519801401854 0.007545344113412467 -0.0020476807373644348
862 0.002490826596677284 -0.0013782955018436396 -0.004621921609245223
866 -0.017085211234234697 -0.012109345556158084 -0.0065543769798976
2044 -0.00815584544458032 0.0038342977501151934 -0.0052858733539844814
1829 0.01989646742562177 -0.0064855417456388025 -0.020485998991611156
651 -0.005371640008261657 0.0029036043019330248 0.004619861884946923
655 0.02851892371143389 -0.002334059108645143 -0.002604967059024187
656 -0.019721744136492938 -0.03763434760872853 -0.009554763340599003
654 -0.018230140001277408 0.010871265158638758 -0.002768411833543926
3799 -0.0008424633683514472 -0.0060008134097508 -0.0014770086338466916
660 -0.01831714293348715 -0.013434190016967273 -0.026005385292614782
646 0.012531194506491181 0.0015418974198667763 0.010704052694345113
647 0.005830694986489781 0.0025138068462466686 -0.008052090687824115
659 0.0011533741015512101 -0.00642801083578952 0.005827970267284013
658 -0.0007127199122030314 0.015362072483762966 -0.009854799946507703
657 0.0064174070911640615 0.0013452374494314083 0.003508506513607083
649 -0.019157892432560338 -0.006824161718995688 0.03474749537835833
648 -0.0001186760101566756 -0.006279308165800713 0.007475155019792289
650 0.004093507641713112 0.0010714302570076011 0.000403816305253992
652 0.0030431632105954167 0.0013713542242929685 0.003954818481116051
653 0.007430081018336012 -0.004024421593308096 -0.0034987060426320965
2653 0.0026628033380347803 0.0014088801567443286 0.00043619037040748147
2654 0.007810351928227489 -0.012556498885559339 -0.006566437924090552
2630 0.007593343440010681 0.0037485330096832174 -0.008619797761616652
3060 -0.020632108762715564 0.0027070815048831666 -0.004187473558485319
2046 0.013436249200288897 -0.015113391382812836 0.03299095664998604
3800 -0.017135496870344498 -0.005531435013248011 -0.002010436002545191
2655 -0.0076384919832088605 -0.00218711889255761 0.012006757290215758
2573 0.008694015359527667 -0.012322976225466608 0.005679111550687719
860 0.0022643117059781737 -0.005372594144525602 -0.004146642635560176
2606 -0.013897080057909602 0.027994075153462836 0.0003942550943842114
3184 -0.01280078949304362 -0.00025298278029060444 -0.000649704686720931
861 0.026138380244293918 0.0165537343556318 -0.003334531137224524
736 0.015174674740570786 -0.011631293737034922 -0.013620375114934207
739 0.004095594319006695 0.010962756742323197 -0.016695354513956758
2511 0.004269684734006137 -0.011257343360649867 -0.005259590022112407
750 -0.005964751282344802 -0.013638067790784778 3.7463726208066016e-05
2320 -0.006409362148002668 0.004766889002972311 -0.0008237509808930606
2322 -0.000167991892884749 -0.023693230123331653 -0.0017304559037618326
2754 -0.005112213446908864 0.009688188991409155 0.0011910707114221705
2438 0.01067046188166071 -0.001702861123215568 0.005270075678456538
2321 -0.013287784625453826 0.02007163781580621 -0.0011712152284890486
738 0.010408623937866943 0.004695433292485112 0.0019060078350584722
737 0.004628198631107902 0.006490541634673521 -0.009826871474866675
742 -0.004996778667169083 -0.01238765703295332 0.004176511056986899
740 0.012393513194845938 0.0005464589427621135 0.0017997809303323177
747 0.0035986354711667477 -0.0006713381094648872 -0.0004884734213210568
749 0.0014751929291870723 0.0001262062822589478 -0.006498703367357293
2752 -0.01037482592637078 -0.0008965433348607073 -0.0025984059778990064
741 -0.0011697609713296382 0.0033895039047502117 0.011834594189233235
743 -0.0036280337149915266 -0.0033689398410476855 0.0022220933185695944
746 0.015082681976908213 0.020631177666059847 -0.014789689636563288
748 -0.011740951325693336 0.013460139041544137 0.00348852288055745
330 -0.031540066163960274 0.027014122639865128 0.008697258840501713
745 0.0316848472736758 0.005158928184556081 0.008023792887120892
744 0.006465253471068728 -0.0025957989288261218 -0.023357799119814403
367 0.0028068995532255507 0.0032760408320259126 0.00044937459367424073
366 0.008718486693162504 0.020563925967529515 -0.007898953958162777
365 -0.0019134372995461971 0.0016159374293300344 -0.0009699218183323845
2753 -0.0009415332428268638 0.02246896320370793 0.008388328824527913
328 0.01157013921810013 -0.00046467436786316765 -0.016976564526630555
329 0.002050217409606513 0.006636548146987893 0.0009823590758412874
371 -0.0037406780225512663 0.017778380654811823 0.0073414797719774764
325 0.010694794736785137 0.007959762773903933 -0.011953270909476434
323 -0.002048120320159583 -0.0018854801588457668 -2.7183584396038858e-05
326 0.023826220037816394 -0.026714298780502504 0.010069762845397272
322 -0.0003933358546196584 -0.003562666565700404 -0.00553330992937928
327 -0.002812227763474753 0.004517599460412019 -0.0037493614210035503
2437 0.003269178650394169 0.001983477674970203 -0.0007963961884341043
2881 -0.0013720862591534268 0.007593117395245 0.0009524860153628231
2407 0.00041933730673354654 0.0022151778527979937 0.008647262595632603
2408 0.003044895057611323 -0.007761144022535042 0.015982685354141598
2409 -0.014421363783111957 0.006930286542105615 0.003711182237038043
30 0.019655513988647885 -0.00922458928642378 -0.015147543701032114
370 0.008380425886523912 0.010431092392843112 0.002008833296120549
369 0.01985978487093098 -0.005012096147172455 0.022149050924129422
368 -0.00494674276405043 0.001596800530888057 -0.001119510927510263
324 -0.013663167740507754 -0.035010351626210086 -0.014538332486618651
1637 -0.005185253536942978 0.010998750217603893 0.0025155397458288898
640 0.022085645719391298 -0.011495713378346425 0.02691630079573058
645 0.017305507331561328 -0.012534338329281365 0.04235902397311788
2509 -0.00032249980191635213 0.0003968670513610334 0.001203347124140323
363 0.003049849094199998 0.003849085290068553 0.0068964913539390545
364 -0.006175884728357906 -0.03529142297051873 0.009108524642508069
2156 -0.007064609145536761 4.442893180330761e-05 -0.014070279633907376
372 0.003609480492240855 -0.0008951197083693005 0.004679609516401607
2155 -0.0017939831368559574 -0.004177341364983741 0.0034892128473243363
1525 0.0010886835763705 0.003800443789987445 0.003892887388195197
1527 0.014163244624852078 0.012711657000980465 -0.002962152049618332
1526 -0.013994289037401443 -0.020404112784904945 0.005271502738700994
1656 0.007430993824773329 0.01235105463703061 0.002206501316916726
1654 0.00789498064581408 0.006696762806020072 0.00306991818291291
1655 0.006653354900490569 0.003235906891135511 0.008866930386850538
1658 -0.0027092089309188896 -0.004900873406763828 0.014633636722809965
1659 0.011787295459607303 0.017574480696692225 -0.003391180502321673
1657 -0.004071946935347164 -0.006481476446567095 0.004138161450487704
1776 -0.009133106432391907 0.0013744770824631568 -0.004328740928449666
1774 -0.0022247690938552406 0.0018893356586866929 -0.0009407879176747965
1775 -0.014542958911045317 -0.007928434218966572 0.007231679362272318
1908 0.00923594730496554 0.014326507364414737 0.014232228913868494
1907 0.0005781606933544594 -0.019661231762997326 -0.00026757856327916927
1906 0.002877609076828873 0.0030114066452964295 -0.005868621863001372
643 0.016992659507623617 0.004521329905118958 -0.007371126438750909
642 0.007082313738102773 -0.003998461679273433 0.005228150236568274
2157 -0.02719654932827429 0.004492264611645095 -0.004248235291186999
2184 -0.01423616551986586 -0.009889216936235231 0.015482515253022055
374 0.0035992211322042186 0.0036517666748825746 0.0010283553943680422
362 -0.006000713557828404 -0.005474761333177652 0.0015445145948553602
361 -0.013509189062411955 -0.0029577078300907444 -0.01032830562826206
375 0.002655887987660322 -0.006888612321730267 0.009637397147329736
1639 0.0024934055655032672 -0.003560622076958184 -0.000991575698958789
1640 -0.011987433464757355 0.004129634235135668 0.01460837960998342
1641 0.0021744441409438965 0.005040310385463105 -0.006891180230543269
639 -0.018529372822750297 -0.0008598275854147044 -0.008278567460149648
638 0.005133677237654287 0.005204209419756227 -0.0057081113689317255
641 0.0020298794623434297 0.0029937636247331875 0.0006263011679733678
637 -0.0009492560618796013 -0.001675353743119671 -0.004363376048506533
644 -0.00182331802920038 0.0015126161669914973 0.004992278846874563
2183 -0.00843118387978921 -0.002825806283126581 0.01109840145460465
2439 0.010270594646321787 0.024535911720218087 -0.008395406719812247
2400 0.0063900069156405045 0.009562592162582303 0.026647521950288532
2589 0.003359456647481385 0.00023561179864105394 0.003462993316252167
2908 -0.010810718501084752 -0.0013963484320218135 -0.00880592201262243
2493 -0.005303225762716465 -0.0007030582307323898 0.013062269209304918
19 0.01165961331568516 0.008191706269417795 -0.016281476543737086
18 0.006704920777667171 -0.0003474446633893609 0.0005483469240307028
21 0.015805119257238653 0.02139227931996766 -0.020952171683790072
20 -0.004640699113073707 0.002222471416011945 0.0028891662507250977
2510 -0.015316510860053291 -0.0037024948971475847 0.012671246288371631
2883 0.015924786861684956 0.020310388139891847 0.010205680873593833
2882 0.02300919080494918 -0.011608712624567048 0.0027052375088704264
28 0.029626921865443377 0.020738782663780563 0.029523160411672578
16 0.0006544521971637553 0.004618666405940958 0.020027079661272203
27 -0.00447724661957505 -0.0033932783377199505 0.001313672900262802
29 -0.002771064442303878 0.004544840070152613 0.0011187926257336055
17 0.00654460311425954 0.004829435706155028 0.0031421837132091005
2901 0.0020891665119829195 -0.007271079320960664 -0.0052929998709831325
2028 -0.00851664537022809 0.013122452879827383 -0.005883859591293726
2026 -0.003210129441687328 0.0012673135453932865 0.0004580202706242958
1795 -0.0017107037312153015 -0.0007728062588094155 -0.0032458345653956955
1796 -0.010916614090942323 0.00013806419165808098 -0.004737399475383038
1797 -0.0019247973622433837 0.003284173651467074 -0.008952184972524167
2021 0.0035257343860804887 0.00833424555876851 -0.001319238966035983
2027 -0.010969787309056211 -0.0017853469637491403 -6.414069122658753e-05
1973 0.012800841504483027 -0.004467450541623603 0.011009772332679506
2899 0.0025739856671142293 -0.00837577347825777 -0.006053860084772736
22 0.001302166006091748 -0.0016993310101697417 -0.004139340067536809
1972 0.0017737068574278138 -0.003329096736017543 0.003850279103068739
1974 -0.022649801423307667 0.007009373050179021 -0.002795365000516463
24 0.008410697149540314 0.015869821126165484 0.013760525736359113
23 -0.0006663363517110385 0.005522065725501053 0.0017395928761909218
2900 -0.0063238511805292115 -0.00011111558407097885 -0.016559434415084378
2299 0.002188863428626054 0.004152045354852617 0.005801176613789471
2301 0.002408924302442016 0.005552076079778576 0.0038097723500254833
2300 0.021236310551083805 -0.014381989840352445 0.016758774283845836
2200 -0.0051080565395861454 0.01150555547816331 0.0003108618797905623
2201 -0.010591889486706576 0.007567919326113072 -0.0017706969720069083
1955 -0.0013515341215035743 -0.0026012852522307194 0.007529311084047455
1954 0.005409108725986318 -0.004316066174904287 0.003716895929285947
2513 0.00300110433330155 -0.01607975033038213 -0.00260500878694684
2512 -0.008450439037079534 -0.004139514080308767 0.0023312641502998494
2514 0.0052689406621100115 -0.00766927548219253 -0.0009558505004835116
2447 -0.007358833185969351 -0.017409261439657327 0.016084621805546935
2020 -0.0021178644495139067 0.006276776407726022 3.1764670212972735e-05
2202 -0.00701339843410362 0.015267337106163131 0.001698758919489219
2927 0.012426112790905336 0.000497593196308433 -0.021645556591792254
2928 -0.0034379666595198487 -0.023253632240881488 -0.008367317639668942
2022 0.0028316055933588556 -0.008917620043679405 0.0023553866463085146
4443 -0.006892005887843489 0.004664029791105248 0.010158084627944973
404 -0.006335001547600469 0.00048169564193708083 -0.0049910696999296055
1447 -0.0011689884753279096 -0.0008941970974791064 0.0018339741496510625
4253 0.005137550878689097 0.004384216355371392 0.0039697289007399675
25 0.014719843768712064 -0.018833392441422563 -0.00217320867199147
1223 -0.007633210747349754 0.004031175490246304 0.002593767427669779
1225 -0.001291538037090853 -0.007723089668005037 -7.242153956756987e-05
80 -0.0016209561085651879 -0.012295101521883003 5.25242009468463e-07
391 0.03064646624797155 -0.020955770261490574 0.014097443975698164
81 -0.00874450272491258 0.01687435940667615 0.013332548673344035
1956 0.0014346100033242706 -0.0077450986727547865 0.010730206956073615
2742 -9.055622019586178e-05 -0.008730435539262945 -0.005039713042051009
2740 -0.007475637954721221 -0.003422861914100535 0.010935287754842074
2741 -0.006562572914068975 -0.018681193522789973 0.02077246692976026
82 0.003533889624622476 -0.0009431694259597168 0.0005763999402530716
631 -0.020506971826179072 -0.017367489553093963 -0.011824322748423597
84 -0.004802932083570779 0.0138172823412591 -0.002902582719546937
86 -0.0012402393760415917 0.008344423530679258 0.025369959935239304
87 -0.0023455796308631395 -0.00173242788968765 -0.01305212955184613
83 -0.005695620987738452 -0.00410029718360737 0.0012941647982924898
85 -0.0024981121292000324 -0.0175611105033829 0.02260670213090118
634 -0.0009497229244578113 -0.012670353435598749 -0.010803498299552102
632 0.0031730860562681038 -0.01654620353904369 -0.003975538260783484
1969 -0.0018479844514244735 0.003117082094246229 0.00013440895758567816
1970 -0.015439934145321119 -0.0028159810355582304 -0.00667428837578544
636 -0.035261618843988145 -0.0030984860203253166 -0.011163462822700258
633 0.007643040376243074 -0.0025909419785146628 0.0036231845629538747
635 0.0005811459501642931 -0.004241277231794144 -0.009418030849691854
1971 -0.03192723624478948 -0.032717856771920295 0.005914365652314154
4370 -0.013742420300672083 -0.004532399665253165 -0.0014904106534438391
4369 0.0023647042589584515 -0.009817863272995983 -0.0019559290701245207
3050 0.009146813123209903 -0.023609512885750028 -0.024646504613864004
4371 0.01281610931710064 0.003031575872296522 -0.006882648663573074
249 0.008354809291780603 0.0435493673507715 0.014777190546582424
675 0.0046797133299463466 0.021228183406458125 0.0016766366671529392
661 -0.017900409209254044 -0.007915102948908966 -0.006988467453359644
662 -0.006578994602986588 0.004257662254069263 0.00044468249345256246
674 -0.00029420349815010405 0.00604185366663879 -0.0015666929458811691
4442 -0.01510217955721184 0.0033215766001651365 0.01612280523701498
2762 0.01852791513214506 -0.022099486411745976 0.00952523590670552
1576 -0.001692540901329768 0.0031502354851932687 -0.007874293718521153
606 0.018255447470586394 0.014776204964548534 0.011000190226179356
603 0.004079609251858187 -0.004805885256588943 0.003400243000920766
604 0.027350192596704737 0.003222762093999242 0.00681932744084903
602 0.00015088447417966624 -0.004549501373373738 0.01216387184714951
601 -0.004939589733128689 -0.012797814029626466 0.004521018445406159
240 -0.002459673966344533 0.008057738414310405 0.0049849414742593415
238 -0.019856026538823457 -0.01979557861458791 -0.02057892891649333
605 0.001488931397607914 -0.0014978268859729606 0.007762613156498061
614 -0.0036803008453602055 -0.0003091792938649005 0.0007292387998687304
615 -0.0052317090934905774 -0.008442110274343955 -0.007038444658349865
6 -0.00927271397413397 0.01014623643007472 -0.025712928492004544
5 -0.0013459713921454767 -0.007147202067414806 0.002554655104895848
11 -0.0014764099742000185 -0.0044415346418799325 -0.005688408696822568
237 -0.0016773258117607063 0.0009366042106404062 0.005041473819004516
281 0.001556472853425361 0.012317846096543373 0.0013424582398544745
2347 -0.007731625671137444 0.003221140619799272 0.0012222358538937987
609 -0.016640129740695224 0.01384599514334758 -0.005808174867460077
608 -0.0082095827063395 0.001807591765564532 0.001964098820615577
610 -0.00044922300817127605 -0.010462374538488337 -0.003116656266775764
2436 0.005281529796411915 0.005083947783174604 -0.015392800060393284
2897 0.011673359384009017 -0.010974076148200312 -0.008513630586500709
280 -0.007067481016275004 -0.0024499081630036295 8.101496766707968e-05
278 -0.0005869418286092473 0.005012016572522583 0.002931350976727841
611 -0.010428312470233904 0.008379410566361099 0.0021942521976355423
613 -0.009252004573896933 -0.013516914437308477 -0.012566870784441037
607 -0.001971833076993275 -0.003549727772318016 0.0034512059041106147
612 1.2570550266396947e-05 -0.007879365687258777 0.005370857374583339
279 -0.0035567068491510895 0.007202828673589569 -0.016116435802086954
2051 -0.009136845475687891 0.004096985629013319 -0.012258599548216405
2050 0.0010654453584023396 0.0002735227641644696 -0.0029189079073868984
2417 0.020769297065430438 0.008139160369809204 0.006455299869343921
2416 -0.0029202319701102544 -0.0035017329232844793 0.004572047628277431
2448 0.013429834558032528 0.008697479526055917 -0.010736009280411631
2446 0.004555600138449759 0.004893724302893833 -0.0009005514093440315
2418 0.021037884212124533 0.006575506906967215 0.00519997918952847
2330 -0.0009018592366980525 0.010778068949447776 0.004713426366461296
2331 -0.013269362009712342 0.0068588470251488365 -0.015992073727864303
2329 -0.0033148860383313728 0.0005691561685427425 -0.0016233423188479735
2412 0.009287400227797438 -0.009870084886966078 -0.0123521993912751
2269 0.0058400506849426515 -0.0057286372919839665 -0.0034834607650266023
2896 0.0027153228857392754 0.0005479517560213256 -0.002341239143504086
2898 -0.013064525087571143 0.00454194831042359 -0.017286073374016178
2676 0.016218299160001785 0.005684403547423326 0.010691890468883875
2271 -0.00885973148717693 -0.01628426095584851 0.008563772085780262
2270 -0.0029829995911052963 0.0017561871377614285 0.0020096542481674276
2019 0.0061281168882110605 0.01386579378314601 0.01147768922897768
2348 0.005705332180592896 0.0019983859199262165 0.0014432716684576715
2349 -0.01970852560068215 0.0076752496882478375 -0.005527848282207101
2840 -0.0008306179625983109 0.016326120439185524 -0.010036398405566797
2766 0.0030694421606768784 0.04445722650404066 -0.0019612707746977354
2764 0.005742559346403259 -0.007385925614753332 -0.0021840753964833407
1856 -0.0012579031569773488 -0.003618904371283548 -0.020508537350989856
2434 -0.0014208685335086978 0.0016289301650182569 -0.0025751206579076387
2052 0.00017990699791565074 0.010632569761023955 -0.002654910978890923
2411 0.01650057400554874 0.011975731906461477 0.0213140574282133
2765 0.005076243571845612 0.013080661440575273 0.002119914569429045
2410 -0.0004509440036508654 0.0093150852413084 -0.003088218567951803
2674 -0.0024214638623995493 0.002485595225323359 0.0023530327030760563
1857 0.009421232817421495 0.00629719604779234 -0.011336989178604288
1855 0.003731541157708708 0.003509028695964649 -0.01201215441206724
1929 -0.0048122775825577635 -0.007632684732241275 0.006172501132259962
664 -0.020073304630939252 0.007997076331063375 -0.012218504849947638
665 -0.00022057869094299734 -0.008091187729302876 0.007250149986445041
663 0.007398739476285731 0.0046337143630751565 -0.002252055380739777
1927 0.001608165807172907 -0.002629939760679454 -0.0005716971959706383
4171 0.0005798742313288614 0.002840052088766745 -0.002650114788449375
88 0.003762918026332137 -0.009302675117765653 0.0017144344889015765
1582 0.0028447354795332488 -0.003965884856564258 -0.0021718820563630427
1583 -0.0018737445120403807 -0.0018872262683580672 0.0037379583288703064
1584 0.011571231141752104 -0.010474989524057423 -0.0008596104846811679
2592 -0.015778394769872826 -0.004287888829358215 -0.01909462293907658
2591 0.014606195215313948 0.005046608795074342 0.0004153470635550707
2590 0.0012112458663789683 0.0034123011442155687 -0.008457108066752692
1625 0.03061188697149334 0.0012102169843956668 0.009229826201347522
1624 0.004506772450335147 -0.001229032985361428 -0.0010810816892574775
1626 -0.002626020603486025 -0.016479647966801757 0.0039658313833958545
2017 -0.0001587142857062236 0.0002197505348272623 -0.002703612489849268
2499 0.01937152854483736 -0.007223500239208185 -0.0049703793852388985
2498 -0.016441756047074648 0.0025816952008461515 -0.006525075351274156
2497 -0.0013791460583123852 -0.00212624571955728 -0.003616748405253042
1877 -0.010363192645887026 0.021625960190648753 0.010462470277849037
1531 -0.0009069169661861163 -0.00044354796731160823 0.0010311248349583772
1876 -0.0015495337024718512 -0.00015631486819675747 0.003876767823445368
1878 0.006663627279001799 -0.017716894386793417 0.0006027085829304568
1533 -0.003420152680628624 0.011963574043853602 0.007409990099787534
1532 -0.0036540025639614166 -0.013776147709860204 0.011941232417697437
2018 0.013138532538373557 -0.0074867425165594794 0.0014637208156529481
666 0.0029898649857571825 0.004804516070787183 0.017346167575190512
1928 0.013651809729374144 -0.0039246389302154605 0.00891655320702765
4173 0.006210496275845495 0.00025376020568044583 0.02210309668886881
1764 -0.00042644991099314374 -0.009866564040199076 -0.018137306415231747
1762 0.0006834912810770231 -0.00229244471931489 -0.0018108675292798301
465 -0.011352788640075264 0.002918754753683051 0.015178087353941338
1450 -0.02422436368039766 -0.013132248720680188 -0.02376639177079784
1066 0.02037367483794772 0.01186151175704419 -0.008201786787617824
268 -0.013412218939361087 -0.018635917255723743 -0.0048384614480635425
1448 0.0011088753429284901 0.002848828942925659 -0.005683692417288478
14 0.003587775822691997 0.0012095366544079623 0.007572074457655736
13 -0.004732787720676474 -0.021116394422593325 0.0052981669756603025
430 -0.003337131617156282 -0.0039153500498699595 -0.0070527920987848896
10 0.010508295284050596 -0.00042396389087811446 -0.0005803793841811202
7 0.008018146995645521 0.009760944784113193 -0.0008896760121800954
12 -0.0014526740191509282 -6.76541986150479e-05 0.0006889511140046611
8 -0.0029895719289548465 0.007850309062741855 4.565564018774325e-05
9 0.001024453231347675 0.009755112533263041 -0.0005180167869766816
428 0.004845771325658684 -0.0033444440455413795 -0.0037380751786533118
235 -0.005356157987158392 -0.03449172634881825 0.01726129943331463
236 -0.01645242601145322 -0.011975145648664597 -0.00021038944614358148
685 -0.0022904304912945727 0.00781786095680596 -0.01278947954823567
1913 0.005108332541614523 0.012252239031969899 0.004292598865806138
1912 -3.358765696867729e-05 -0.0028548185058397874 -0.0034238552298133792
1682 0.012150832184749369 -0.0009322214773021238 -0.006112181748424337
2101 -0.0028260055614072444 -0.00018602448634967613 0.0010661788760839004
1681 0.005602270112480045 0.0019002748198863272 0.0010218202442777713
2302 0.006079426659497688 -0.001668294485385171 0.0016861476243740772
1547 -0.0034684134438557473 0.006588715227714263 0.009409641716549677
2486 0.0036809696159475318 0.011170750602774627 0.004792124922746946
2485 -0.0006277869153403358 0.009430411826742823 -0.0010684315553514867
2487 -0.007103149281768855 -0.003446598618439471 -0.010314853290829993
1548 0.0028803763953500435 0.02257011079656951 -0.012335082144911877
2303 0.03729246049543205 0.00014769490404582908 -0.005621320980519641
2249 -0.005265066903535702 -0.0023878922672350743 0.017781258246094438
2248 -0.004674039721624076 0.001114852620414967 -0.0034888073968630147
2250 -0.013344417109285007 0.013320266988171408 0.011299286996211026
1546 -7.496361321434589e-05 0.0066399243413994904 -0.008081275059842078
2197 -0.0025541581052646364 -0.002592519320077578 0.008317341308348618
2304 0.00806315566529843 0.009001914722597036 0.004092686592102869
2199 0.022229308715313718 0.005577020575898525 -0.0036271355235545947
2198 0.010239603363820036 -0.002554803756037921 0.004361765330489101
2263 0.004895738123828489 0.0020869489971625994 -0.0020778750317617146
2264 -0.0019581545661319145 -0.0001313912690308746 -0.008982365312023441
2186 -0.022756948824643772 0.010563664940245571 -0.008630762323512557
2265 0.01261514659765192 0.0035950996112341484 0.006130727625832084
2414 0.025321257057711197 -0.015120952542397833 -0.001168139816011652
433 0.010094399778195927 -0.00720306063996488 -0.03434688607149156
2415 0.014598643080160128 0.022235362159276247 -0.010038830229905387
2413 0.0037130242737771556 -0.002753674048047332 -0.003459429438421694
1941 0.0009822416035376892 0.013058522887274377 0.00839545344535124
2103 0.004130616020690376 0.013156073869604558 0.009175260159841866
1683 0.01290227511646972 0.018898329178470286 0.0009924779264385787
2698 -0.0043414511744442105 -0.0032750042864188016 -0.0019568085262548075
549 -0.010236493458064242 -0.00021955070584764186 -0.002416105765954696
546 0.022011893622974465 0.004023632343068365 0.02125373055430123
548 -0.001739398851233685 0.009423698782176596 -0.001260223781996709
551 -0.0038424413154665464 0.02023648546464895 -0.021544733263667112
550 0.004668129684678 0.020545721743192545 -0.0179902426433845
547 0.00283622516212132 -0.004541355241976789 -0.009494458446963241
1801 0.00048632879812869953 0.0032981393445142434 0.0013289668645671507
405 -0.0001298637771553105 -0.003430195036404015 -0.016039640423870086
451 -0.005734846497541391 0.00036211810254698515 0.0077949524835749726
1222 -0.0023115128150729657 -0.005764285627802788 0.00031274583392634856
1763 -0.010797999487731583 0.012475769607384432 -0.0031499873877676877
452 -0.008291712660265953 -0.0031185255802243655 -0.002924169487579615
464 -0.00395821680885728 0.008416176654581515 -0.0007810767936178498
454 0.010826319355787744 -0.009925565947963294 -0.007647277397672035
296 0.0011066081645027834 0.039684905428112836 0.013051896415014917
2116 0.00357293933086431 0.006559568067612101 0.00028246618135164837
458 0.004051979472700573 -0.002305495294542435 0.007212896580857208
2117 0.0013056437010827455 -0.0013064230655346308 0.0011301002257623689
298 0.0012202703690709785 -0.010104217510059499 0.013796408904946891
2461 0.00343037828182292 -0.00460820754023302 0.0007017803082134851
2463 0.015634177243795417 0.005135120423579601 0.015466851363244064
2462 0.008599502519980517 -0.016645642801392257 -0.023138618051991886
453 0.0012854326012963094 0.0031779555620274425 0.0025125996593232044
455 -0.007734710605744929 0.002932589095320053 -0.006740120676805293
457 0.004711003396967993 0.0018723420811435124 -0.0010448030084367619
462 0.000331357138464426 -0.0026921337497044845 0.0048985974682732
459 0.0027859791320746646 0.01919783959069651 0.006400492997229986
456 -0.00818106819453647 0.01301920566733881 0.004803269559673339
1709 0.007566558691245115 0.004310365669830042 0.030548454671734317
2118 0.028316604970641576 -0.014862396731917997 -0.007681199931011988
1710 -0.017071444096743917 0.02101876871336315 0.003693528797237431
1922 0.012566974236324295 -0.011802417262199019 -0.017840336062403737
1708 0.0011583543689849603 0.0035662173280335253 0.006024832136893827
2367 0.002096886399287828 -0.021270875642690295 -0.01218885177597594
2576 -0.028882188128611482 0.014145366511473368 -0.005555333034503016
2575 -0.0018657998900578159 0.0006930179605674451 0.008492137209506034
1921 -0.0016794028547571821 0.002187560085139215 0.0028660970464673132
2033 0.001965535192445983 -0.01155357654822299 -0.015420525626440534
2032 0.005698925940398521 -0.01153981288232676 0.004818566825187668
2034 0.02580668309755583 0.005705033756029595 0.016534792217713375
2253 -0.01896144489811896 -0.004551511412365664 -0.006269683544901115
463 0.01817579526134042 5.520729603377579e-06 -0.012615314700468332
2252 -0.012036271865085527 0.017748855943755092 0.0120374841585921
2365 0.0030475891739484614 -0.0066839684945417775 0.002370053293592097
790 0.0205105049902596 -0.013578562842132788 0.01715246026243858
789 0.013713149051688122 0.024007951570274546 0.014004144078633748
788 0.0065583760347367875 0.006276167782729 -0.001804950015197136
787 0.005526840409758681 0.0013434992048949404 -0.000716452653966719
791 -0.0033341073495896587 0.021394504285516047 0.012509937945741447
316 0.0019228895962825326 0.01662621428587682 -0.01130909302469139
317 -0.0008805658772845517 -0.0003150790442612225 0.00494444611088947
1940 -0.0071456070320025196 0.017788299945626248 0.01965659009022389
794 -0.002951915361605979 0.0008997854621797744 0.002815237716268959
793 -0.01570484573445016 -0.0016050729879609343 0.007049229426659678
792 -0.001979407225084194 0.0014998305589056502 0.006688882555813566
795 0.013497295598161414 -0.02051700598775115 0.005944052703873929
1943 -0.0029914750058451203 0.0041970054095829 -0.02046882147359518
432 0.004278072858414929 0.0010311323397183554 -0.0011778100330114326
544 0.002667677757752395 -0.011193002526780594 0.004448846720885007
2125 0.0004205774800354777 0.0016312028850735904 0.0035227093188884154
553 0.011860185544781599 -0.00018525552907738003 -0.004321417154122199
545 0.010298942522518076 0.0013431099145571463 0.0023338741323436435
541 -0.007479090995837077 0.010473167499408098 -0.0034855808475763657
543 0.00012818785039505988 0.003513196175586263 -0.0019404460190899397
554 -0.0027420075553151717 -0.002307394248158449 -0.0022089513570786416
555 -0.005157859566846863 -0.028264430248316277 0.00673982161606198
542 -0.005981760536127775 0.0028660754362907714 -0.0057503618252068905
552 -0.0022069693322381307 -0.0012914644069195074 -0.004508543665519854
321 -0.019931825813735527 -0.001998480042339986 0.03981930471426685
318 -0.007624839537718502 -0.0024831481402492785 0.006346113918614493
320 -0.005577072929990219 0.0010240519215116762 0.008617154045025225
319 -0.0073582928782832 0.01123415611800053 -0.018749180724967143
2127 0.004872085996197464 -0.011120570285823172 0.0007934592597689452
2382 -0.014734184621331997 0.004134054455371107 -0.0036631361953817186
435 0.001788618453791558 0.00890368061063923 -0.02603365876159459
434 0.002749685672200406 0.0009577638855465975 -0.0032710731742003445
2542 -0.00030944006402978247 -0.0010290887530681075 0.004406648861542599
2543 -0.0008719063995563613 0.036915556819408335 -0.0058671737315583155
2126 -0.001850910202827598 0.0012732527055848593 -0.005758720285550546
2544 -0.015776053599293204 -0.005236732051378723 0.024302947521842828
2756 -0.006283569617024046 -0.006047293541361592 0.0033198204759503245
1939 0.004631617957269934 0.005127390518227201 0.004652551967781696
2471 0.009527292667145068 -0.016888907087485232 0.0031807443120326533
3058 0.004392509326103416 0.0008227207017310358 0.004852982878772339
3059 0.008959684356386013 -0.0002812225070997352 0.002790552428427446
2604 0.008508160229693553 -0.00020749644584765612 0.004437372125033239
2849 -0.006128604831660219 0.011585919061224375 -0.020571877213848816
2848 -0.006822711271674241 -0.005020765031524935 0.005488889212785966
1606 0.0004516910726464159 -0.012427865981082786 8.78536417111564e-05
1607 -0.02058668488166197 0.008109003868917702 0.0003394649352247841
1942 -0.00398930101738892 -0.0069857666371656345 0.001727403365830368
1944 -0.01810887715480545 -0.01302805795360114 0.01032102311568981
2307 0.009371409178185002 0.008024376450619092 0.0063871315188212385
2472 -0.0007799174683988455 0.015000950516163581 -0.00928559159900714
2755 0.003591925434937392 0.004103891239482191 0.002057247523690513
2016 -0.014682492500866723 0.0040367383618269805 -0.009272421229652902
4160 -0.000666668002379613 -0.014288159656378752 0.01001692091571626
1573 -0.005273898948583306 0.0021909861335919433 -0.002665735333301859
1734 0.005738200361334022 -0.000172371908193894 0.008508915808927684
1575 -0.008954662999066077 0.0006983832485350002 -0.037287862491155586
1574 -0.0066880725233657325 0.002010439407748193 -0.010659849908767467
2603 0.0001063311328779363 -0.013570778585336767 -0.012071947855345981
1608 0.024919496448836908 -0.00035795781791293264 -0.01310159548576668
2305 -0.00021988826304790757 0.004284514201495569 0.003414243309665362
2182 -0.0030314814246611603 -0.001427520687609824 0.0013373877478791768
2684 0.018281677604998922 0.002419052551851501 -0.005933808586154491
2683 0.004758489467377439 -0.0026881595222603043 -0.0021008835113334426
1652 -0.008797584340472415 0.001256364578558737 -0.009772966246726989
2014 -0.0043760077344807274 0.00043170118627757013 0.0015394137360312799
1644 -0.007055475026572421 -0.006960630715310369 -0.00226619684542944
2314 -0.0008054722412936322 0.005212499748758453 -0.00134383329761359
2315 -0.006572890613867569 -0.006618249291047711 0.01166017148004991
1923 0.016649634206715155 -0.00039139186867397606 0.0246580505000833
2316 0.030209586321313223 0.0053863103951350445 -0.0017399742318277367
2921 -0.004154840338470794 0.032330149846363475 -0.018148140176839488
1733 -0.006218644300618277 -0.0056236786978840535 -0.007322750102912152
1732 -0.003483821349196878 -0.0019211947319942805 -0.0050464553626237635
2306 0.0033461230380894013 0.01150331653593683 -0.004617436875432459
1642 -0.003865614684731504 -0.006023994428538896 -0.0060639313137124
2757 0.027438493905402123 -0.008691743030236898 -0.003246443343997428
1504 0.0007304792231732146 0.0019612661939471428 0.0010583725656877299
1506 -0.006234291487765044 0.01625004486916005 -0.01450419330968916
1505 -0.010860672711904723 -0.005513022972745433 -0.004193940170965983
2685 -0.0004834448682435708 -0.004125471960883311 -0.000886291058627484
1643 0.0071300600654349835 -0.004798645170405736 -0.0038918418846489496
2015 -0.014245138628432345 0.0031101243407672774 -0.005156827311782739
1653 -0.008059113360801848 0.00021267971020332612 -0.003219572097276739
2850 -0.01197951571461698 -0.0015837508939224583 0.00269266873754256
2577 -0.01818721483713229 0.011947271418848668 0.00012462437469015108
2470 0.003930060055988155 0.0007408142968909754 -0.0037117185947794077
3348 -0.0026785163161789807 -0.003459265488451251 -0.0029440019044658134
2920 0.005518429282952717 0.010560570026456053 2.4045293355616865e-05
2255 0.0014959588601137501 0.008229899447232725 0.008109285741347299
1736 -0.006277207372109641 0.0003843013524790763 0.009270378847820409
2256 -0.0047560610308162 0.008555091717390774 0.007098838401989437
2254 -0.00041671869372204726 -0.0014894835469928622 -0.004849131771959394
1835 0.0012305528486414503 -0.01322429909268096 -0.0014174662062397662
2732 -0.025504538383833063 -0.015893026893692184 0.0369370597882377
1593 -0.0007945713769121326 0.019643414974559847 0.0017334707994812412
1735 0.006432422674339662 0.008037147238575506 -0.0013359244370485302
1737 -0.012303167307015767 0.017182572945519423 0.004227581169365957
2374 0.0018733162390401341 0.004542483138567662 0.0033465476105344924
2375 0.03178258946531198 -0.000884951717690022 0.01016503436730872
2376 0.005735344322799894 0.012590326121299754 -0.0010661978610621901
2797 0.002497990759665494 0.0034182948885011655 0.0026362450474890983
2798 0.004906412923413002 0.006979647799482192 0.007382841524954916
2443 -0.005079648164214899 0.00384975998037762 0.0010924361443887753
1636 0.0002511754264545684 -0.0035588173480865844 -0.0015486546210409572
2379 -0.003893908507918416 -0.02018244857394645 -0.019937620933048034
2377 -0.002733464392063527 -0.006848498175073627 -0.0010455422027647594
2495 0.028381796311065247 0.006258596646247119 -0.013661434194005279
2494 0.00810111925884842 0.0034519050062270904 -0.005635677382090407
2496 -0.015574715640712427 0.0036388323685750596 0.007610758783917062
1990 -0.0022171035890898552 0.002137280420286592 -0.0039892729469860715
1992 4.9392767360103944e-05 -0.0036146685652605186 -0.002231196627736783
2799 0.0063721063560229566 0.006779438432961549 0.002918852993438309
1638 -0.014317172441024425 -0.00820079853660663 0.01871019842336708
2731 0.003712111635568776 -0.007379957339214853 0.0030370177325081894
1591 -0.004795210658327281 0.009823537330627364 0.010725827513530621
2733 -0.012989062918137312 -0.015113179378596643 0.040198709973037185
2612 -0.012816450215015021 -0.0007750864529530056 0.009152931346021909
1691 -0.009941945730776001 -0.013831667961674314 -0.006280865484609426
2444 -0.020415219770746194 0.01372516943969041 0.014668606709306236
2378 -0.00284959652207974 0.009095029625785681 0.0026521353684819432
1592 0.009780326940664791 0.02950505299889881 -0.005808437656622544
2611 -0.007626693105133734 0.00535845962695485 0.00730230044294737
2625 0.005233433993370766 -0.004723020984681031 -0.010122080348400184
2832 -0.0011340959590083995 -0.01379688305707802 -0.018563429787350032
2277 0.00024332475004456793 0.008246029301026744 0.003712892130978102
2060 -0.0005327662235353134 -0.0023923542105992006 -0.02768221392692657
3020 0.0028160691503514405 -0.00037841740198160103 0.014765952428530571
1380 -0.005344813824623189 0.022230263476910386 -0.004226556473956766
1266 -0.014992099301340208 -0.01201667685496735 0.015973712049076723
251 0.025801259964215263 0.007720888621462533 0.0056581289388204815
4342 -0.00022448394808668076 -0.01022717252139738 -0.0013930742667691888
1984 0.005219748320011202 0.005264083065110514 0.00500107911285307
591 0.002925351364149086 0.002922530705821818 0.02569194572454034
4325 -0.013121982239893458 -0.007397555736053528 0.021501281865632826
2600 0.0009189824668501967 0.00638520594474777 0.0003874023250944445
2601 -0.008974461080636471 -0.009375751414772225 0.018664463064552574
2599 -0.003774440735185657 0.0031204864038896388 0.0028674521494127334
2280 -0.015740261203567328 -0.0182869548792777 -0.01044243704460365
2398 -0.0019519974178705917 -0.005117820871264041 0.0011947040585695142
2399 -0.005602284312830005 -0.008880240318631393 -0.006552659207279958
4326 -0.01218629003600241 -0.005007584870613488 0.016887914179409304
597 0.0034120033022730597 0.007485074907879347 0.0029240485113280544
4324 -0.004415420464928794 0.0006971720091297635 -0.001832587405100747
590 0.0007128304343886818 -0.00043406239911134215 -0.0033446058171555616
593 0.0034077989866564437 0.006833149771504355 0.0023889388492949575
2587 0.006512907469699516 -0.0026204648822607856 0.002963098591451578
1508 -0.0026908127727400402 0.003442277328186404 -0.004726225108304855
1507 8.758788979609576e-05 -0.005918180413863257 0.0038266696890918135
1509 -0.013436360080130492 -0.0034844968866887343 0.005313615270979047
2910 -0.0008726240045820478 -0.006870085587566307 -0.004552066117476546
2623 0.004677554876696215 0.0026165403590185272 -0.005671603714412546
2279 0.0029583111133507463 0.012658648144274687 0.009385129094371536
2278 0.0016570060701597996 0.006381661636759301 0.008133820290251498
592 -0.003400237730269184 -0.002985751241408396 -0.002119339621376913
2909 0.0006081636809797229 -0.007688048835005831 -0.003862390529444683
2624 -0.0016275661201984857 0.005716000336774244 -0.0015705881143184951
594 -0.014812625709687539 0.02473408730576761 -0.001588528822058989
598 -0.0017103709532224744 -0.018032898097888723 0.024649183602109416
596 -0.0007963547135620031 -0.002770130345512869 0.0031207888104982885
1724 0.019555330623734817 0.02050769765130076 0.009267863464698158
595 -3.724459570818663e-05 -0.008909470674081257 0.0009646103978453788
3147 0.014467781770799137 -0.009003915808050773 0.018135816527953458
3146 -0.031555866866520156 0.004437629203851314 -0.008334444683572454
1723 0.005261543781956009 0.0005063216036444164 -0.0014862069034803855
1725 0.015071927825733696 0.011776905960021618 0.00198884389765389
1686 0.029994346296071922 -0.018581812305835242 -0.00938559485339569
3809 0.0026851223722313784 0.0036707737602811982 -0.008133394085682368
3145 -3.8995517370594075e-05 -0.002559096273295861 -0.0012638313966921982
2588 0.005315235169712913 -0.00560055029508835 0.007000241288698355
2445 -0.0030707525041182185 0.011578216723656939 -0.03541067004914444
3808 -0.005281090532925642 0.0044231603241915995 0.0016216028205450874
3810 -0.0022142973097390695 -0.005505912128381835 0.02090391968103475
1985 0.00046581750239343294 0.007390519940859837 0.011689032468148463
1588 -0.0022040114149885167 -0.0031271688832015913 -0.0008869969433265812
1589 -0.0043183876120017695 -0.007787723484067431 0.017281573656075678
1692 0.027584219458862965 0.013905632451304474 -0.014552357171366525
1690 0.0007631066177579978 -0.00477686472747038 -0.007324685334445538
1836 -0.0016185679168876695 -0.0023185712788249143 -0.003182163410802248
1834 -0.003107548340666096 0.00599751244976212 -0.0006535503110738327
2748 -0.00768509094511268 -0.002951701081335337 0.0029573578456123556
2390 0.00659626288218721 -0.009878988179085462 -0.006635092495428992
2926 -0.004239440023589073 0.0018746262156940424 0.006547984254460452
2553 0.022087996731072014 -0.0052683680963121335 -0.010919980889837784
2351 0.007341093714663959 -0.00879491900815088 0.005031345814929464
2352 0.006718401744426093 -0.00593377821734714 0.004268382070113254
2350 0.006473608044159742 -0.006589747058863086 0.004060790251577795
2551 -0.0035651533750748338 -5.2443934051717576e-05 0.0008489310878603596
2552 -0.0022676537636991175 0.019949520446479994 -0.00014584037936388232
2389 -0.0009964039487514419 0.0027433639762144057 -0.000307412678414407
2061 -0.0033166342411684265 0.0034889671889097623 0.016488950336167325
2059 0.0029964868928038613 -0.0009094646770637869 0.004011067776528862
2747 -0.0020675037289972237 -0.005217606854921577 0.00407135640963381
2746 -0.0079975640674873 -0.003347436612411985 0.004127402176099593
2387 -0.003354448921251472 -0.010531488393517616 -0.003665216058930344
2391 -0.0014833684002145335 0.021073711996762914 -0.017089818564638523
4389 -0.01190556261586583 0.005700042760620119 0.0005348749342181251
2620 0.0006604861122720292 0.0026430782585023186 0.0011548935113299143
2622 0.006459203415311064 0.006159693025702236 0.0034267990541386297
2388 -0.007387001686677845 -0.00645737772420878 0.003677824486095155
2386 -0.004802493731531748 -0.007173656832633184 0.0014482317171942611
2714 -0.013653869100856489 -0.019648774017882606 0.009715521898674761
2085 0.0011223332460262268 -0.0012605482483926365 -0.0008138119530766132
2083 0.0008437170397938241 -0.0027741940183664644 -0.0033814599719662972
2084 0.00014467370720959511 -0.00529860910811159 -0.0023478689079867035
2290 0.0020141483362783874 -0.001075485208763601 0.002020113397121373
2292 0.0049917696279552035 0.0026537817630307484 -0.0008265418077379334
2291 0.006822913355580937 0.004686282007454085 -0.0030866176630712622
2715 -0.00989642968889605 0.005282083420697217 -0.008161758411661137
2713 -0.0023328550754947606 -0.0005285427382729441 0.005219077984611606
1896 0.009265460684050554 -0.004878426446716598 0.008759873982788838
1894 0.003254411969415134 -4.144968476073438e-05 0.0026346582887065437
1895 -0.002582519445787646 -0.01791703629199835 0.0015399184296347405
4387 -0.005043831937195482 -0.00253034041365697 0.0039982994041148304
2787 -0.00047319050047342124 0.013515530130620528 -0.008715740236891317
2785 -0.0026448606684516666 -0.0023632504328302776 -0.00441428650700453
2621 -0.018057262307858854 0.0012537058804911606 -0.0008102248524556625
2786 0.005485662102128176 0.00971590421399226 0.013824523908068001
3049 0.0032439591776594993 -0.002684980340716408 0.0006289380888540504
1559 -0.0207551791215778 0.006467715323608377 0.010754859651184126
1558 -0.0036745813662210653 0.006460296082529416 -0.002953000578216636
1560 0.0017206389504589021 -0.026810926857012248 0.003907567752075907
1817 0.012166330781999397 0.004132039279278347 0.009782830235604955
1818 0.009941362846441858 -0.028785585255527112 -0.030056746586702748
2867 -0.005698169234028522 -0.0014994053350059512 0.007760732327063814
581 0.02989477804243584 0.00032671140286311226 0.008703541529919196
2406 0.007805497813969758 -0.016387865899361132 -0.01812158136771414
2405 -0.00043635807606548136 -0.020143319200152703 -0.010011876021481634
2404 0.0077066225501201775 0.0007661237553125101 -0.000271187018707769
2743 -0.002688916067166011 0.0017808425933567467 -0.0006785993295867602
2745 -0.004998351774926407 0.0014658362001095215 -0.004252515435307085
4396 -0.0010368721089097299 -0.005031436797263609 -0.004567350499715804
4397 -0.006775077728838648 0.002539718312448343 -0.016128133316905872
1779 -0.0007768302650172236 -0.0036472826059083478 -0.0033285203782310647
2868 0.008752539418906172 0.008821081572934018 0.005272451701103968
2866 0.001566734981046694 0.002819216517474193 -0.0006043146365847743
1778 0.008559305734397062 -0.011693067736218246 0.0021037279865978985
2432 -0.0032350728176162523 -0.002904751150549375 0.0006703439085262344
2744 0.009997829864839613 0.006532710127902122 0.011507305097103798
2777 0.002113685937978975 -0.005055032119652582 0.0064584934937040655
2431 0.00028043081537571223 -0.004960490141105754 -0.002067157755532581
2433 0.006196468780236475 -0.011966135780497876 0.005645472816926628
2776 0.0016952240222502283 0.0015444877051228045 0.0028437866923713855
2778 0.004558333867384166 0.004283019888153845 0.004012666443771388
444 0.004487279067291508 -0.02037496862904351 -0.018343551848379092
445 0.009918019259687256 -0.025945031164094145 -0.017958151776947286
443 -0.0025110908002958904 0.00032726861735894573 0.0010325849017880173
446 0.027629121707864617 0.020911611655145056 0.015781616642704117
441 0.03872316601764876 0.0049504027231032114 0.014950715569220804
1777 -0.00014851731426237475 -0.0034546378280516177 -0.0012281991653108019
4398 0.0019344640091417818 0.006716941254620054 -0.013524994115091983
4112 0.021207428436123978 0.002733093745909442 -0.02467186381757926
4111 -0.008514169860110929 0.0077322965682332795 0.002903874690971565
440 0.002147850050190357 -0.0036642811475868725 0.0005887769027056663
3069 0.00861794808546864 0.015866345949154818 -0.007487878546648183
1816 0.00916836927651219 -0.00029226452659274394 0.00030730926762644636
673 0.006392297289759542 0.01274827072884606 0.0030166841806902964
442 0.0030078285254700105 -0.0009370733585675069 -0.001600067495952417
672 0.00529481948142643 0.008640525348961264 0.003259154077458175
2148 0.0047558596666860305 0.02156553337096982 -0.0013293718578782992
3444 0.017944526198360445 0.029679454233383546 -0.004701889157895802
2841 -0.005085128992499276 0.005800748262623481 -0.0005082044147388664
228 -0.00120352390271572 0.0040054040103074005 0.0016937687308650443
227 -0.00018518507269271552 -0.0033734852006732023 0.00803973523829437
229 -0.003927363521433245 0.013184379391061478 -0.010800944773002488
226 -0.01849049468710835 0.004722629079130604 -0.034860632109082364
239 -0.009004780959890447 0.000596402865982806 0.013046663527559078
230 0.0018949582707084931 -0.0048334177669024075 0.00408330840477011
231 0.002273179737842464 -0.01649389122531159 0.00044210143304577814
232 0.009053645483933233 0.0012735916688556496 0.0005358893653539703
2675 0.01672209378323739 0.013734062990747422 0.016166126139660793
2730 0.014772365873767655 0.012651191639720678 0.008822708167804132
2728 -0.0053598523360904 -0.002358653977594862 0.009039935392878718
1821 0.007227825262041717 0.02066411482830765 0.008652671909400653
1819 -0.006088996377251717 0.004589049207261351 -0.003647795221589203
1820 -0.04928006650038255 0.003324302355370731 -0.007251404933104663
4388 -0.032289171866723906 0.005731467529369926 -0.00963614095966095
2839 0.004164224483947662 0.00011465233673771044 0.001531918047130772
1563 0.0052361146217870256 -0.010673532504271487 -0.0057720922304450055
2729 0.0011880286936139643 0.006488400660446823 0.008180575340772689
2709 0.015151437629420528 -0.006721593047837745 0.017582009031250748
2058 -0.0041469845237727355 0.006436321413362475 -0.006813972164817015
2056 0.0016855645480963301 -0.001975583650336132 0.004791857534499043
2057 -0.010639867243028551 -0.001347019959509615 5.426893608077223e-05
2079 0.00813881615028327 -0.001226130581967774 0.0041525141168586134
2078 -0.008649213103461015 -0.003425631327728961 0.00661827686150766
2077 0.005052542139716587 -0.002027845641925844 0.003226802093435058
2820 0.029642013612735604 0.016258958930258055 -0.013834645169850085
2819 -0.022473836018827263 0.01492279674288378 0.02904309966717054
2818 -0.006190511513641927 -0.0028380476594235264 0.004446665256163407
1561 -0.00261630238348127 -0.0030200597246025497 -0.002573186491075701
1521 0.013384084775323981 -0.0017093950177745473 0.012000079935005457
1520 0.002564168099894813 -0.002689919270776566 0.002492615162870286
1562 -0.008636202887568178 0.011481668607135911 0.007670936082586074
1519 -0.0007060058568285978 0.002634386954698325 0.0049161911148230064
2802 -0.013491518424830483 0.029276692768970904 -0.0053463664564129725
2566 -0.0005481126217567705 0.000880584932944605 -0.0022886141450502336
2800 0.005215979563176091 -0.005365609645622509 0.0010555146205903654
2567 0.00862173187913239 -0.017225561935370663 -0.010357948645332873
2266 -0.0023221894646164587 0.0036157025123291406 0.005485999554975385
2267 -0.0077082661325469015 0.0003687936165020265 0.01401533378774368
2268 0.007642141132043551 0.0014954909269835057 0.007862641364761953
2801 -0.013224705819242974 0.028422779676426133 6.34739022227635e-05
2707 0.0006457123119938302 0.0025558794301963005 -0.003990141175243508
1881 0.008896228156774015 0.0023989779527274252 0.008504749344699015
1272 -0.0035566930370641 -3.9131661261862096e-05 0.000796643307432299
669 -0.014150953279485222 -0.011195139123325698 0.012890682070019588
668 0.007930293503172025 0.0018865541515465717 -0.008190711647237482
671 -0.009924985574445815 -0.00018248766257069558 -0.0205368415369751
2556 0.00028262598520851216 -0.01243504958055043 -0.012591027896628932
3051 -0.002161622890232765 0.015984916043915623 0.018754683112973448
774 -0.013435914641060982 -0.018692426871564208 0.004637331109645671
2554 -0.003700965754892096 -0.002666184989638546 0.005528199044098831
448 -0.004960921002775487 0.011321261863796285 -0.0019960292287771095
450 -0.009913787008092765 0.020831657784596246 0.007974513494586236
449 -0.0015194754691301433 0.001066124083712157 -0.007317225632636159
670 -0.0005719723921035926 0.006355978482121643 0.005532849513241687
667 -0.0017965937695361349 -0.004800661979056677 -0.0014832010519995856
2555 -0.042894301148154325 0.017624401530423665 -0.011072401899645147
439 0.019182936673163477 -0.007035811120808468 -0.00123018634619213
447 0.0001486647499861064 -0.000743146319586335 -0.0032612383747902696
436 -0.027862428956333268 -0.0025728424778937004 -0.016454027522047214
437 0.0031576234083405524 -0.0032059590934709575 -0.002435768000909975
438 -0.0059042873797240285 0.0005683621063731701 -0.0026346884707995105
1080 -0.01980714457105268 0.008754955893388894 0.006420263486712497
771 0.004275793559428741 -0.03489373698401065 -0.006582597484158418
1079 0.003954158340770525 -0.0021521680715920234 -0.008622396412041424
1067 0.005986566562117507 0.004327424988107641 0.0014481131180197485
776 0.0023085055888272693 -0.011586805396161196 -0.008330182285398436
773 -0.003616100145220956 -0.004837433567486642 0.0007927832686958748
770 -0.009121653173802492 0.003024411715939088 0.000846616648699312
1070 -0.0009646767881321283 -0.00040109071906882515 -0.007894386089351562
1068 0.005425396378894173 -0.004551321042341487 0.008075550405984268
768 0.0005140988843369835 -0.0020908758997298096 -0.0022149697521364987
772 0.0019864505320115037 -0.00928106264931648 -0.007610021839020593
777 0.0004087645834953032 0.0015855120813508669 0.00726423151057559
778 0.00038723022015284134 -0.005292257392274946 -0.009635112780029723
1077 -0.004357117108096401 0.001960080856367325 -0.005957506983362171
1078 -0.009415256552295363 0.029456019774367497 -0.02243488835533993
2323 0.002821193061816123 0.0018085689775149418 -0.0061130994798987304
2325 -0.002868030682592208 -0.009773134781084153 0.0077742428713246615
1072 8.881381005761517e-05 0.004670304728426602 -0.005498655746360893
1074 -0.007859201891441573 0.012591743519915212 0.007730200507379754
2324 0.012181208193104077 0.008722748867207985 -0.004966450629519005
775 -0.0055599622493723 0.016024011045677973 -0.0016349431915733134
2708 0.017498318555647617 0.008095367442488304 -0.017199502436238273
1073 -0.00679892511160626 0.008032605878155673 0.0005489225886829396
1899 -0.0022799114883696662 0.00898246244408831 0.003668122814317474
1897 -0.0003184894228832228 0.00302357238494842 -4.411689611704479e-06
1069 0.007401657483473107 0.016133317409739605 0.014693284683454945
69 0.01601905155691952 -0.0019174199978374091 -0.008384380412697824
73 0.008872300052186682 0.001565764458349646 -0.006749076193707759
70 0.016238266214749435 -0.0253699370644238 0.0061888544518176394
429 -0.02264686140766618 -0.01883000627527764 -0.0179356401015937
233 0.003193238925189791 0.007814504144652646 0.005615125832378549
65 0.0025329849745265687 0.0017999230851630946 0.004009382044040646
63 0.005895122357355833 -0.0014483474190652393 0.002105493876935441
66 -0.008783780173015442 -0.01608824872680341 0.02083644249501268
71 0.004768822135911554 -0.016865276100856755 -0.007949714047764117
67 -0.0017692078438511928 -0.0040968555537896955 -0.002580440683540362
68 0.0032448866959759824 -0.0031687906521973975 -0.0005494132062391632
72 -0.0045848845286729795 -0.007596144627062174 -0.002627483578396427
234 0.00032634868949411503 0.00533012859587545 0.009134655959743578
62 -0.004414986042283284 -0.0016990557097821888 -0.005053566722605842
74 -0.007208270406602591 -0.013090363008200472 0.00178174994452267
2295 0.0005557078620388333 0.005398574038163349 0.0016774235385364903
2102 -0.015120478055358481 0.002735172985634119 0.0018886430722515727
2185 0.0005875285650001484 0.001381745291735929 0.004818910465906037
2187 -0.0482905694895364 -0.009919595283655944 -0.021839573755636717
1826 -0.007135524923905057 -0.008305868324906977 -0.0013651649703925574
2568 -0.00988052803154268 0.017873251473193463 0.006587096378048523
2871 -0.010587129160475096 -0.0028068021895542353 -0.007049155921298681
2869 0.0028670600334654117 -0.0044755455060331885 0.0006313036464578942
431 0.015817118708534538 -0.02418540515357265 -0.014012891348847084
75 -0.025472421913655816 0.02392128502198846 0.001491912241653894
1982 0.00237548975011263 -0.010458373138590221 0.003207848724774345
1981 0.003622651625638736 -0.005318092329099881 -0.002646529989082259
1825 -0.0015275871475776673 -0.004401317073998377 -0.002060657728911193
1827 0.003235349777184778 -0.004327145525944468 0.004828124622748501
1983 0.013962708918927888 -0.011442587111426336 -0.0063959211579216625
305 -0.005238509096630322 -0.004708396658062409 -0.007261756272472837
306 -0.011203541806502019 0.038907742231130575 0.007486694730608931
2294 0.0035873234723471617 0.012816561628009735 0.00035481143890786845
2293 0.0028677388120632815 0.003613090585225593 -0.0005799919459833946
303 -0.002412778875051524 -0.004837755229177323 -0.0014459151985619669
304 -0.010813961883270714 -0.008429443730916641 0.01013964652803444
2538 3.805170597092943e-05 0.0032193975250466066 0.017769141280437134
2537 -0.013661602340883778 0.0035503543211981305 -0.020888158435182155
2536 0.0003462900448735052 -0.005736092327536474 -0.004493326980861156
307 0.004778879689344109 0.0032280847024597887 0.004319804414470984
2889 -0.002005590898782561 0.0061200797901127734 -0.011751642203990189
2888 -0.008431283058339465 -0.021563753748742812 0.028628318178010766
2887 -0.007908975192048591 -0.00021165972114042927 0.012475323267141156
1780 -0.002983574934784698 0.002935709509713257 0.0044222831999467934
1781 0.019497584648375237 0.033257411919219715 0.03180457630636536
1782 0.02863131896942682 -0.02354391668763659 0.004235765311618151
2870 0.025506343974481177 0.0005669313347009727 -0.0036610375520872685
2106 -0.02835636467369875 0.015135626452575813 0.010305211515983088
2104 -0.0010732725861097429 0.003134182938061077 0.005198730672823195
2288 0.009832130992150375 -0.016896272682687504 -0.005535495042609635
2287 -0.004572678281920687 -0.004930022024566144 -0.008133412042778402
2289 -0.009011236222943867 -2.700780948364821e-05 -0.008590185564474913
726 0.004577987757464331 0.020797083374259385 0.013180269267591409
731 0.012142099872870665 -0.010217909141425658 0.004494269430169339
3865 0.0009321432141774437 0.001823808466271958 0.004316743645690033
427 -0.003732645778436643 -0.002275441239353347 -0.005026811278908196
2246 -0.0017157797214723512 0.0023762660765028636 0.008174391065962175
2245 0.005629998552760658 0.0005006911445126606 0.0007558346875483059
2105 -0.011821989714004243 -0.007946967109709666 0.014318256169503982
4419 -0.0023168759002396956 0.01675389807441603 0.009069303509380143
4417 0.0001765064139801103 -0.0012811648676026145 -0.0030626441900146557
460 0.030322633965915786 -0.002114506032367946 0.022415276131400225
461 -0.014284721274073948 -0.00831260847878681 0.003391522260550815
4338 -0.00331307808890762 7.898713163563189e-05 0.001521613443722916
1076 -0.004065285216861832 0.00796495095338976 0.02106072036283857
2952 -0.004851467436648177 0.001818542914103074 0.017613124389362602
3718 0.002472894321752288 -0.0009202266357649453 0.002782332416344978
3719 0.005876835321683188 0.004006957573472124 0.0012773078395728788
724 0.007935688543634674 -0.0101201633674755 0.0002758307608746459
729 -0.007124340009817532 -0.028031058443895647 0.02629692143878145
1071 -0.01263605323268019 -0.0018040595750085505 0.0008762526007724484
1075 -0.010273991309064137 -0.007282160444857919 0.001976538120156915
1005 -0.012048338812570227 -0.009225198748430469 0.013513230517769597
1273 0.030582098008872616 0.00728051423479612 0.007728762792040559
722 0.0021649299108532473 -0.0030753361027245924 0.005295426552930682
3312 0.010661705538143761 0.019309940745560656 0.0011812493022529925
3310 -0.0046251520782921935 -0.0007500416991551748 -0.012157252476384058
733 0.01324642720748409 -0.008408788957586125 -0.009296031266864391
732 0.0022302305884089636 0.0018627551675314445 -0.0031509404019413054
727 -0.00043640216924905337 0.002337356019381631 -0.0022001179307452974
725 0.0004259652909646793 0.0028100412586539616 -0.0014140218757097763
734 0.00296159639507735 0.001543747380661386 -0.001990290333004239
728 0.00010465197295002687 -0.005520226732215266 -0.0009802202146487902
723 -0.004602352491369982 -0.005386323052924996 -0.01044291770685418
735 -0.004976005570743811 0.0252317497421693 -0.0008766783714206234
578 -0.0018525376139780765 -0.0028577274123273407 -0.00042369227447927506
721 0.04042412555967813 -0.00016977111419165416 -0.0025366419808186794
730 0.0062903204608705104 0.02085487507135798 0.00280644360151706
3311 -0.007101998899661451 -0.007306330008967504 -0.011984948053395478
2282 -0.015113026421418582 -0.004675663783788368 0.002391094985210175
3867 0.0027883323577767316 0.006771220162102148 -0.0044826844006686265
3720 0.027109601038888296 0.002142098505113478 0.008414422540868457
2950 -0.006759938792613957 0.0029170288806566577 -0.004305063220773996
2251 -0.0019606156033605596 0.004572176399185686 -0.0007285308018785761
4337 -0.007825892153397167 0.0056286298112765325 -0.00288047612296301
4336 -0.0050567692271686554 0.002307888418484882 -0.0006904571974990826
1004 0.00011753965319241862 -0.0008211142104302984 0.002352186504832635
1898 0.006318758438016148 0.00195703264227146 -0.009132178961034836
4418 0.004445464638271464 -0.006773600636366714 -0.033962421805099285
426 0.019811361258712256 0.006167634238239982 0.014188618994551625
302 -0.0013304581033889804 -0.004759535994343937 0.0008795992958130531
301 0.009501379969071229 0.014412821814797078 0.004460414773504103
312 8.202012160422105e-05 0.006858306614056913 -0.0031729472439393155
314 -0.0012744197138886237 -0.006129301609565713 0.0007516168291907501
313 0.025165469388082465 0.03000571488203694 0.01755332081940214
315 0.016605710227741502 0.009324924835140127 -0.015945089729250548
425 0.004831185032376393 0.00703067893668073 0.0071470787878037435
423 -0.0017039351635966483 -0.0011534551996043947 0.00045185566983247614
424 -0.0007507297594361999 0.0047090504069129445 0.011465635939335363
2705 -0.0011377302602015567 -0.007639608953887966 0.006096905235724125
1572 0.003377980169820951 0.029954540528137362 -0.02096794387729889
1570 -0.00021360465675844168 0.0021783793162040706 0.0008465879805415397
1571 0.0037838067431572972 -0.0027844925079613635 0.022218166869291088
422 0.001833805526236607 0.001003175113248462 0.000418378603965137
421 0.021922090964266835 -0.00033906315110173796 0.0356200605093668
2522 0.008098363661786099 0.01071159228452901 0.003247821462727631
2706 -0.014389014320942294 0.005236917470027894 0.00647782144516212
2704 0.0002346636587507696 -0.006753106363289753 0.005263002783673978
2521 0.004877710232915247 0.006510351297990488 0.003646489412178091
2523 0.007659169172868058 0.008530102230461465 0.002921000852588212
2661 0.005954185476841948 -0.011542666097325812 -0.00031641671429866934
105 0.009275647412838563 -0.009865535957569154 0.009035285188487502
2659 -0.001788778786379773 -0.002319366190162071 -0.001702202667236678
1695 0.009946258854398557 -0.014222393389169438 -0.012808769269966337
1693 0.0036242517470814416 -0.004991532497397417 -0.00032026419913721454
1694 0.005601532139199332 -0.008492568836650052 -0.00391905973365296
103 -0.007038021986310295 -0.021238317905792645 -0.006776184848619613
2830 0.0014427495700740653 0.004852940276303868 -0.00023311041774778192
2500 -0.0031571741601283472 0.00406133313118883 -0.004405653110183759
104 -0.00409585379620086 -0.0014734680651187246 0.0023416601829714754
2501 0.0002668198442971737 0.0019180567883930256 0.011271211663959045
2502 -0.0017467162281417628 -0.009687638100578762 0.010590787452283838
102 0.0003975124635604111 -0.0033693480031701407 0.002423233465268934
101 0.006632405844363909 0.007391578506395903 -0.011289213521457517
91 -0.0015004102954614847 -0.03173203061606959 -0.005132800436141191
2660 -0.00371205196453342 -0.0018867556532357367 -0.0021215172843685065
2099 -0.006118244630316081 0.00031693991934830774 -0.0006867423194922663
1651 0.0001920125144719952 0.005772831401564643 -0.0022428447891131545
1684 -0.003989667176201564 0.008422920526166904 0.0026945820425351547
1577 -0.001710256717440201 -0.024426663903926314 -0.003986433441674726
2951 -0.008909824613022458 -0.0009585546195947561 -0.038998531065784006
2123 -9.961761816634546e-06 0.004268071736627713 0.0020727445212085755
3928 0.0007052731236048737 0.002840512820087956 -0.00047372163744992935
3929 0.002977084422285457 0.017285566599873143 -0.0193118906247212
2831 0.0007678669940482796 -0.007944950426398437 -0.008415230391528992
2395 0.00823607806902212 -0.005908821554465544 0.0031259258638722115
2396 0.01385853586631086 -0.012041755310803226 0.0008365583335986979
1696 -0.0030393647524117042 0.0014389808390321915 -0.0027381086084232657
1698 0.0047173992457242775 0.0009431062961898628 0.005925155713269286
3930 -0.0054170587081429945 -0.01940324355319449 -0.009413284057421872
1685 0.010649446363326848 -0.0012512944239067491 0.004819365365376212
2063 -0.008980872525636728 -0.004206162460671245 -0.002177333215150702
99 -0.010981767415348696 -0.012318655235153691 0.007429310875420548
2548 -0.00020417711826088158 0.0019357553465870815 0.002565950231770659
1697 0.0023677202066334753 0.0007745369802767886 0.0077189181355566535
2062 -0.0037835964222260043 -0.0015436598677012574 -0.0007890699868982244
2064 -0.00495266856419736 -0.0009919651854340375 0.0008294418458815056
100 -0.002139111932032039 -0.028894253392963754 0.018663857412773432
98 -0.0011570997770671354 -0.0013449285411371095 0.0004169465669550765
92 -0.0005164488923695921 0.004916230586516906 0.002065052090615879
97 -0.0037473744673175613 0.0003180481081595689 0.002027919046946929
96 0.011833813896949564 -0.012134117311054647 0.03474642795412272
95 0.0013990354378662553 0.0012121012607025276 -4.015748728704909e-05
93 -0.0021480618490567188 0.0013723825267420722 0.0016650169218597683
94 -0.016035213324142063 0.014129579800389062 -0.016576754873769223
1391 0.0038367253066063475 0.008899049689300118 -0.0005514661564218741
2549 -0.006225101505682029 -0.00044187324640137366 0.0011006947564679076
1390 -0.011319423776109477 -0.0011773155437717641 -0.02782238215662098
1388 0.000579590806079451 0.002665677758717878 -0.005539233095524084
2098 -0.0017745655293091378 0.0035431307691583397 -0.00213341175121309
1389 -0.004607562196419531 0.010927860515891879 -0.02133413790327978
1386 -0.037853364304364395 -0.01453245112716702 -0.0394478369687078
2397 0.020508097240435598 -0.020995907141991028 -0.006082520953735008
199 -0.013326077935091758 0.03579421874467526 0.0031066738325608175
201 0.03928297807356428 0.007959241307726338 -0.014581461680501654
200 0.015798021338156342 -0.007340524359748065 0.0004759758388506879
697 0.0049304798197862066 -0.008771945079609786 0.001979605967000818
695 -0.0008448827589841558 0.002722645330286682 -0.002585116169154452
2072 0.0024804366436971814 -0.007215909128694998 -0.001042046752458164
693 0.010915587331088319 0.0036906771418540587 0.005025935277193233
696 0.021988825702364496 -0.0065143870238748335 -0.008516330740762445
694 0.01354183675468907 -0.0032111755240570574 -0.014236017503027457
1667 0.006387318271925755 0.004846015326639545 0.0023798084833836905
2119 0.00023412984904429374 0.002731536603513842 -0.004840371195520681
2120 0.0038633242200488463 -9.460084784962923e-05 0.001026608096644591
1890 0.005629889658587621 -0.004671735791137181 -0.016699481104106666
1991 -0.002846001691246391 0.00030475372542376186 -0.0021632985331344235
2613 -0.008771310454178326 -0.008734853245061052 0.0037639080230615954
702 -0.005795568594276029 -0.000906393280291059 -0.00218812018345745
2071 0.0030203820040090273 -0.004368231664874175 0.002171010853887192
2073 0.0008434512661752647 0.007394320130426802 -0.017798386722952184
1888 0.00028745154172588803 -0.0010934203668363641 -0.003613702553822061
701 0.009686875140786963 -0.004300618798390797 -0.0004607161279663019
700 -0.006942231791837776 0.005834970205969514 0.0018905085293453125
698 -0.0013337175424720873 -0.003744554502477749 -0.0018892345485731598
699 0.014633564682929406 -0.005022156892317616 -0.0016397802325863612
2121 0.012095770595399681 -0.0036322658775970814 -0.006935920680539399
1634 0.004219093637743289 -0.011171955836238447 -0.008028682099200194
2042 0.01557844187620952 0.023100459316275395 0.006558715921583517
2043 -0.0036771377068529885 -0.00962386173342276 0.011225075208110525
1635 -0.00781286096629475 -0.011704478756556388 0.010647749406159772
2041 0.0005407860222434557 0.0037284051765157627 0.0032802674375718498
2474 0.024925655162328947 0.012885475897646211 -0.004423454418109378
2475 0.01748517182602019 -0.012879334979354314 0.008289794691338741
2473 -0.0005620041672559195 0.0016203066732014331 -0.006676122809577997
1623 -0.005793098975269762 0.0010876142718739875 -0.013918177802957775
1622 -0.014619978793630412 0.00496354080112917 -0.010446616304243043
1621 -0.004574395454840537 0.0023228634987536648 0.00024259239303971725
1648 -2.8591046744930993e-05 0.007842557729064403 0.006324448472157815
1649 0.00014464146966381686 0.027013144331010177 -0.008530597829805586
1650 -0.0004498263892879129 -0.021481089909368863 -0.006452948240137832
349 0.0396434575055688 -0.005119967542747728 0.008325103664160442
2226 0.011694197254577925 0.011558257842971936 -0.004868853281033553
2224 0.006103058301650627 0.0005115373547352211 0.005287139230064487
2225 -0.026880274715191974 -0.00033151372643461127 0.011342691496645803
1791 0.005140162411010937 0.01042911945689544 0.002022165673179027
616 -0.008898669710675407 0.0053194425679578446 -0.03454612131328343
617 0.0018702359937544084 -0.001713397708087233 -0.004692619124205172
2275 0.003651253067625218 0.0046769330659398416 -0.003987276696784074
2558 0.0052379999508478225 -0.0046217648490607405 0.006530930851689674
2557 -0.009617867152594986 -0.00030185656452213187 0.00239517712588262
1666 0.003512966856558209 0.0016086044496945386 -0.0023731033265926367
1668 -0.021562105134385216 -0.0011672116452161414 -0.003497047888936807
2559 -0.01999528446155853 -0.011280887074784736 0.005055525611611677
629 -0.0035812209974328602 0.009618139439711432 -0.0004020984102188408
1790 0.0030685982449099626 0.0018368221696749506 0.0017103524775975664
1789 0.005836321384046173 0.007152384635551345 -0.002304065836626273
630 0.013796829773224144 0.001040918894590552 0.004202132069474692
123 -0.005602424544203452 0.0027270653628675753 -0.0022737248644415075
599 -0.0005076685660427583 -0.004029137718394134 -0.0031582200487996984
248 0.0004866874495748574 0.003003500905786607 -0.0020647244855524264
125 0.005894656774430326 -0.005810693869232035 0.0037321595789511874
1986 0.004382212389607465 0.014630685102649567 -0.004630028987301497
626 -0.011817272710604112 -0.0010735034918937442 0.0001584615667196367
1267 -0.006658642962561107 -0.0005976002047535912 -0.004635726597835778
376 0.030221546700721517 -0.023603967764482047 0.0011634882779971852
133 0.008739710257133234 0.0028720659349689604 -0.02732466043203565
132 0.00038022541382653374 -0.005262697347877687 -0.004763671849917868
4113 0.0071972961481682925 -0.004372763918989824 0.03198976235021815
1590 -0.0014035670931185726 -0.0006738746866937172 -0.0011736314431991018
624 0.01893408096963657 -0.005228220799030634 -0.0006432904049873767
377 0.0006381909802356359 0.007017657334182035 -0.0037634038676024923
347 0.009330006635987272 0.0014007540765989472 -0.0036483373942331945
348 0.005229879274638923 -0.00018651025364306781 -0.0010614688152297692
346 0.03262857283264346 0.021440755936047533 0.04372920719996614
619 0.016314102041249952 -0.01741838030964156 0.00958781519051918
389 -0.0021287528366103993 -0.004446096436517396 -0.00943222963980834
360 -0.0029550620469304153 -0.0003124256826242613 0.02321011709331329
359 0.0055332866771274 0.007967778135907162 0.0025711320377683933
357 0.0009309471352099508 -0.006919433757672625 0.003403066230547306
350 -0.004237288821824727 0.0019741608284241994 0.0028359963144474446
623 0.0024312415506908954 -0.0015731925134840408 2.1689857361341378e-05
3457 0.005076925753300754 0.0003484711220697369 -0.004833070356601841
358 0.009770412671309688 -2.8900086162383632e-05 -0.024285463282299642
2607 0.006108369435876309 0.005039948281285221 -0.005677462304467955
621 0.01151535764765136 -0.020182590668404065 0.014182373463957797
3927 0.007592622183633809 -0.030812828920747787 0.004218428482674653
3925 0.0010171710369158368 0.0060693167438392315 -0.0011875116152891734
622 -0.0003449891726956806 -0.0010989296877707715 0.005585434894482348
620 -0.00279231202996603 0.005800802921161769 0.005388119700951433
618 0.0023746460916323655 0.0004949814113532591 -0.001546370324483428
3926 0.0015408590830351756 0.033245906616279054 -0.019121549488849164
127 -0.008162542018551855 -0.0029696968347398198 0.0023984347435153223
352 -0.001078657111069416 -0.007714031804948109 -0.0031738686904024056
4191 0.00506313560015649 0.01177991056873657 0.0031954661002254413
1578 -0.008140969079702817 -0.014094623527759958 0.020295605452949433
1002 -0.011533458832967908 0.006111622299558043 -0.0015064190993552273
266 -0.008033719943378528 0.021665371828049583 0.022521412737370433
2122 0.002058781250989654 0.00024975476997307454 -0.005416373542950011
627 -0.00152133664633877 0.0019436075869065147 0.006544838892566414
378 0.004853420091729151 -0.0028321389095525558 -0.0008646530482647624
355 0.010507393375013354 0.021907605531184017 0.0035611113654278174
600 -0.01951912539793372 0.01589558413148757 0.0031155488231944337
1722 -0.010108819476874753 -0.002769826216464796 0.009134745436931649
206 -0.014441415693672346 -0.010523790244973203 0.014052665150994898
205 0.008157220548979152 -0.0020986019760481076 -0.025345197338972558
704 -0.001058824383926138 0.0038800027748937594 -0.0034116690852984163
705 -0.01673071070876162 0.024367760886651393 -0.0012231614398127335
692 0.003995912865437604 -0.0023724038166796804 -0.0008705207960727053
691 0.02771108418468261 -0.010176642404625647 0.02870383192071695
1931 0.015708464755048265 -0.009089144890375288 0.0184111345497631
1646 0.01039457395429935 0.0018323307700339475 -0.002732818061285685
2852 -0.0016221864590734258 0.027534055593158885 0.007483914779516498
2130 0.009201235797879095 -0.003206513518496602 -0.00835274325578712
2853 0.0016531649009231344 -0.010023745788617736 0.009289866848676715
2851 -0.006381073986287106 -0.003832310836925217 0.0044065836272461105
2539 -0.001057844401252115 -0.007247148144004366 0.0037416833466262216
703 -0.011000812700348422 -0.0023678615587693964 -0.007938771573352169
2039 -0.020357639070204263 0.010937788049541357 -0.03290668552601003
2206 -0.0056303826904577844 0.0035904061892652046 0.0014168795213814734
2207 -0.028461617931918703 0.005380715998962805 0.004412536148650696
2208 0.002273172871587104 -0.004456699652657405 -0.01762167833762077
2792 0.012205537351460313 0.00446347356169135 0.0029259747566978364
1760 0.02784340778208867 0.021970903950205616 -0.022240226301649797
1759 0.0037261326868961455 -0.005572909484199785 -0.0016827053912973802
2793 0.009624371745260993 -0.004820966075391323 -0.00578913981239797
1761 -0.007847427131240113 -0.016650827867650275 0.009703889989374536
2791 0.005404154785676948 0.001438352449075962 0.0015283077400777576
1587 -0.020707638710992106 -0.0008859291745079431 0.005387690306075083
2129 -0.003966130540450641 0.007548104608199373 0.012087030290141186
2038 0.005371324492407801 -0.001907929001536745 0.0025374190398809635
1911 -0.004066965434553728 0.01140483501161951 0.017902573550499536
1910 0.02213696903581404 -0.001597595358076529 -0.007844658455497637
1848 -0.008867384487481329 0.001245465096978804 0.002532388652760268
1909 -0.00015494776313921185 0.004503588074944934 0.0001533514957089018
2879 0.011556881193095092 -0.009237276512666745 -0.024924840162568507
2040 -0.0016921105548669843 0.0022502914450518116 0.01434358868826323
2880 -0.013106705133934613 0.005816135239811117 0.02874636907883828
2878 0.006065105908522276 0.002556948153109718 0.001860693700281956
1585 -0.006964363018725173 -0.002468454210055641 0.003809759398301878
1586 -0.004716891483704985 -0.019272750281332626 0.014228884127978698
1554 -0.007121391534164667 0.005092889082780005 -0.006417181016379555
1552 0.005573605785986844 0.0017797029757536567 -0.0016587197235415278
1553 0.010292176937309145 0.0023162076192496197 -0.0027626585517937633
1713 -0.00708460948171155 0.00017155597339056143 -0.009176203418447375
1948 -0.0014404679445397491 0.008079775289498495 -0.0024953089657234525
1950 -0.016649544488900336 0.004880272048755484 0.007309609020173284
1949 -0.0153700370075084 0.003905887907578258 0.009500630667942387
1712 0.007415827347956881 0.001881939445074288 0.015019838805030054
1711 -0.001195040787215813 0.0012211681006519236 0.0067343804246531086
2540 -0.0011824153469745175 -0.011827958621744877 0.005752579546577201
351 0.0019385620754176077 0.0408825771460994 0.0052464466446843095
976 -0.004535651627873471 0.013252987767320805 0.012863283761837678
3021 0.00807244709265733 0.01362565950648637 -0.005734308282655034
1153 0.013402992251701608 -0.009720017080769514 0.013978828442255547
4420 0.006854427139506813 0.0009225491429268124 0.0015410582872361603
3347 -0.009254172073994303 -0.006935121147902056 0.012679181770901483
3881 0.01235083013811093 -0.004197925057631397 0.009880474651148621
402 0.0022822410219578626 0.00023195791852334354 -0.0006110711997103074
2128 0.001283703417248968 -0.002937771903053954 0.006183804061615547
390 -0.006782971596271283 -0.012683736300689988 -0.030241365245405938
761 0.0019855454189581425 -0.009100021020809307 0.008134264568385875
2000 -0.020763072454216432 -0.018639036530359827 0.004122058242785195
2001 -0.004414246837470842 0.0021837438010153132 -0.014572471784527545
354 0.00705699427028201 0.022948432375897644 0.022861757037475873
2602 -0.0031439146426305536 -0.0054069258464382805 0.004363120333214731
2960 0.003575693613307024 0.008871289255357925 0.013608422375423942
1224 -0.021734297649077614 -0.011777475389704755 0.006848680252304653
353 -0.007504872324230578 -0.007212558888829819 -0.0028540118258559184
1999 -0.012110681346807413 0.0025706271453125647 -0.0015561690275789986
356 -0.008634708109530794 -0.004899943105007064 0.028753164667450204
2961 0.012108217844468222 -0.004925047056933322 -0.008249605656486744
2959 0.003944146183995829 -0.0018212400815082264 0.0015386660825289478
763 0.011239869743281727 -0.012085582652034473 0.004057868615709467
751 -0.023651482764031583 -0.014063043570428842 0.024284572088586653
765 0.0025789381499438787 0.003265177043956638 -0.02840957321709849
754 -0.010248608987098836 -0.009120044813843405 -0.020086903748079414
764 -0.003222902432418693 0.0023254001510748788 -0.012898430931118532
752 0.00581349411672368 0.0031018058812749003 0.006604411109286552
3172 4.841768122830308e-05 0.0028023230988459906 -0.0020979216252223175
3173 -0.0004456077783136771 0.002021810063111317 -0.007751273715049008
753 0.005501016964449151 -0.0030353274600936134 0.010924268162517016
3174 -0.002276554210320749 0.0011652491343378392 -0.010856786586231957
762 0.00038129002651430996 -0.0026114794299951956 0.00013165479014804157
755 0.005684329871626041 0.00043596321704958034 -0.004950313842564644
756 0.002043697208757162 0.013531822789404112 0.011119014692866795
2823 0.03453433945256705 0.012916687573921415 -0.010473615075654509
758 0.003822444979480594 0.004867167010188728 0.0011832876128281592
757 -0.0050427377466336415 0.0004630613131386178 0.0023679314316685843
759 0.00601104974410654 -0.007854275329720802 -0.017096979237249173
760 -0.008091263765028 0.029130584878569087 0.02146737474108141
2355 -0.006598041707354278 0.0041264964019808534 0.005480746003136492
2354 0.020963325371435772 -0.0015977007604404793 -0.033778747018346184
2822 -0.0029058551517021987 0.013392879303397148 -0.008243002031933885
1442 -0.00487162543278915 0.0005335562253277298 0.004216785393933321
2821 0.0052642475388223735 0.0011272630847853954 -0.0016434818283805198
4421 -0.011045202553285833 0.0005059259926593075 -0.01071597386528025
796 0.012268374071828228 0.007650004013258015 0.022004674738480605
810 -0.006299456695488001 0.02993087702047576 0.014817514123421709
2243 0.014207129211805425 -0.00011694888887212677 0.0030918177362729738
2541 0.005778308314308984 -0.0007548221012281531 -0.007986079644816896
1846 -0.004646073078830746 0.0027059755368425424 -0.006576387163062633
1726 -0.008587972610647424 -0.00010827996310023376 0.0033775526011604897
1727 -0.004454158727720347 -0.0036855447891318916 -0.0018197530302309513
2004 0.014051313577357602 0.019034845871252613 -0.008583809911562133
2002 -0.0012567622539703031 0.0002650007240629777 -0.00014839348763479
1847 -0.012634238556007578 0.004526259896189027 -0.009152142977567106
2149 -0.0024016500766614463 0.0024304210250808405 -0.0009204161565515175
798 0.0005675364623345944 0.002475006080400235 -0.006770345494353818
809 -0.0068142638168104345 -0.003190031035607502 -0.0004921456869610095
799 0.009342904711021673 -0.004801045378865219 0.009121515649278225
797 -0.0015434492848717192 -0.0011603353827575552 -0.004288191768904391
2703 -0.00686273859815814 -0.014962229185731722 -0.008519372556906324
2701 0.0007107784821527608 -0.0032921423887451186 -0.0016733861570737774
1976 -0.004276099926941168 -0.0019668070606918484 0.00030365877923498226
807 0.008161869794103082 -0.00424829825347918 -0.003055834143815129
2154 0.006815879766986135 0.02038808612002203 -0.008609894474511921
2153 0.016285678957157258 -0.008551275478002694 -0.010185353039997269
2152 0.0016904106171512488 -7.35928215250566e-06 0.004551355632864973
801 -0.00047337033909469707 -0.010993650784186007 -0.008877918991489677
800 0.004786894559319757 0.00027801006777576734 -0.0026940241642275575
1728 -0.003335402520175042 -0.001924817241496335 0.003054251603674658
808 -0.007246709879663868 0.011490099845958878 -0.0157737969645626
805 -0.012632709677519156 -0.004879269458414558 -0.010828935011192548
806 0.0060171625431598205 0.019445783391965052 0.006076213837979493
804 -0.010049417169871563 0.0019839499252555957 0.006855117128297297
803 -0.007569910579893112 -0.0028946450836795133 -0.007583720913353806
1975 -0.0038486710586862656 0.0002825180905205853 0.0019521080014297649
1977 -0.00877110389257358 -0.014505966405069994 -0.010126490800136643
802 9.211404705395014e-05 0.008792350699784481 0.00289925416659121
2727 -0.004161803794988469 0.0006323740391417465 0.011660546711969899
2151 0.0072129689930363694 -0.004262396845689507 -0.01656437360698269
2242 0.0038594542969835363 -0.002957426694709645 0.0033941284590130014
2150 0.001769709621130399 0.0014333459971761448 -0.012322779703612341
2725 0.001859383905364904 0.001109066736466785 0.001505200396911868
2726 0.0034231385551678557 0.0018517573641386312 -0.004988908909507832
2244 -0.003863328547056969 -0.004322869156139338 0.008624512200090423
2214 0.002154442851423844 0.003983125427457054 0.015858189726080635
2212 8.028298308733157e-05 0.0016193109035768985 -0.004646060149399313
2441 -0.03773631446208899 0.0269229458006958 -0.009249211174829585
2440 -0.000931313494006774 8.478754893009798e-05 0.00030904733742711
2442 0.015572360129499122 -0.011987930896032109 0.01907329184663441
2213 -0.012437805080853112 0.01812291688351349 -0.010405163139801749
2702 -0.009600819819503637 -0.001063556892223605 0.004597468343600085
1807 -2.5858962875944642e-05 -0.0016332931790362043 0.003157166866854985
1809 -0.02806777013702304 -0.0009829423869836835 0.023671368212530727
1879 -0.008588709055711049 0.005040014354507668 -0.0017584440783978534
4246 -0.0021635766670579145 -0.007870105937042663 -0.0031306536675089008
4248 -0.0017414462358177672 -0.021644512479001735 -0.025661954595089433
850 -0.016971219059576614 0.026488420614153803 -0.014972552610660127
769 0.0049979646568435844 0.01574452432935147 -0.010461424552817792
767 0.0038779080016987134 0.0022124528681593185 0.007526521785386807
780 0.010167151822861355 0.001820907668073476 0.007458377662231294
779 -0.002378456763119581 0.0017044425224788432 -0.0009999857522666616
250 -0.0023248406439304353 -0.004736378719844426 0.0044007265089314376
3503 -0.008440673794750187 -0.018840414960821974 -0.002413314824761697
2003 -0.01544676746423774 0.005101915849397017 0.0083276344817536
2353 -0.002073714811101912 0.003681553195458732 -0.0005959718718125956
2824 0.003272864816492178 -0.0014061319490215897 -0.00249561003873374
2825 -0.004428513416703447 -0.0069532773376792135 0.007489385125559135
766 -0.011306902026075122 0.010565569139875948 -0.012388222106258243
2826 -0.0001101858584931318 0.011006893791743326 0.00792822370677027
2453 0.008825488833670637 0.006226805808029302 -0.007893982408939865
2452 0.0017799314936608939 -0.0010141692585436811 0.005748336964990744
2454 0.013057795187711446 0.022127607082056598 -0.028503709569136886
2784 0.01525186453656695 0.009112658357844746 0.00171640641159774
2922 -0.006909777895038882 0.010974165620295686 0.00531569303110609
2838 -0.004427352882363757 -0.0027410603544068732 0.008860641135989122
2596 0.001626115886930589 -0.010748680295090445 -0.0003225304652141186
2783 -0.012959468711330618 -0.013253085563039817 -0.012522055273198943
2782 -0.00011322674667284644 -0.008455399755427064 0.0017070830519342846
3381 0.015966687203402368 0.02235464617535433 0.014650476799641396
1677 0.014736713185141356 0.007828320067926234 0.00027783505019235216
1675 -0.001847656218695975 0.008470103577697893 0.001094579047897815
1676 -0.03298581204665427 0.009684448394429312 0.004151838383483312
2210 0.011424005219723022 -0.002274538835167366 -0.00262440222011359
4162 -0.005945921049867672 -0.002561115363777368 -0.004229558053128298
4163 0.000516997501370943 -0.009162919556110372 -0.0015727101302386401
2209 0.0023234772545259637 -0.003734292972732678 0.0026437543898737968
3041 -0.011559132680196316 0.005113787146485575 -0.02329172846351136
2836 -0.0029031849361611036 -0.0020796130511674736 0.0034398338959426957
2837 0.01733278194426192 -0.0022129558487898613 0.00504615036985151
3042 -0.0034530863168817957 0.002316057393149646 -0.007047161893857896
3040 -0.010202287792072278 0.01145086766110992 0.0014680004997383177
1808 -0.016777650669530065 -0.01058643218218097 -0.017145287177165798
3380 -0.025337992604854635 0.010912488430966512 -0.0040331793316151
3379 0.002690473361494848 0.0013352912936059266 -0.00149620751388356
4164 -0.003632948763237597 -0.012749362541410717 -0.0052040381090528295
64 0.002329248024618153 -0.04255429059619029 0.01948695979119085
61 -0.027885258483961683 0.02116500257826783 0.0055036440750648495
2467 -0.0010723351141179638 -0.0020797735555945452 -0.001883110770289335
2469 -0.0055082293503150095 0.010027254093046055 0.009771514914433873
1815 0.004959410491442846 -0.006001548006808288 -0.007874241780001302
311 0.01828553561696069 -0.004370751682881962 0.00907636343614426
1880 0.004307989357851736 0.0010235383745835016 0.010228363374384352
3866 0.0015820540068300871 -0.014717328201584043 0.02136083412209268
308 0.007284995936591501 -0.003110057878199898 0.0018092072062686306
310 0.030224380761379434 0.0074362970458519174 0.007272278162078336
2086 0.0018093319196832006 0.009968320203467624 -0.009369163009472685
2087 -0.008203599393590501 -0.00456964307157372 -0.027284527884769174
2230 0.003432516674911982 0.0029353722223598886 0.0068026812324311625
2088 0.025632798158923786 0.010878634513310519 -0.003739721666474529
2482 0.0007707313387966096 0.005177711018511191 0.0025880040718049154
1863 0.00477477868297956 -0.0029393314950760694 -0.004688155185049733
1861 -0.008314686145785176 -0.0028265743677212984 -0.00371066875102494
1513 -0.0008401573391859339 -0.0005922055089341249 0.004419919993959519
1514 -0.01381537622624367 0.002971763635862403 -0.008272503441514431
1515 0.0015277152346023538 -0.006332721296718339 0.026136242637605216
2247 0.025447156164669898 0.008279590329601185 -0.004771034325884929
2232 -0.005682881294239258 0.001094709620043304 0.013401666910812488
1814 0.005715495604596379 0.007567713320962359 0.003681191332322065
2546 -0.00484608802522029 -0.002015360455573338 -0.005291949813945607
2231 0.00037742862879383326 -0.003815320493884284 0.017270983221923636
1862 0.006290675532464389 -0.003915494940088143 -0.004144485714937867
1813 0.0049619219009702405 -0.0035454045115772656 0.0032359334426787186
2547 -0.00022111271779913546 -0.010230244241888556 0.009036755581599352
2545 0.0016154242461425036 -0.003817731620679699 -0.001129818421482147
2571 0.007598367731429645 -0.010282396759954978 -0.0022030324048590557
2570 -0.0014736276832209838 0.005087074288351545 -0.004588048980700629
2569 -0.0006086145240624426 -0.0004823146916451744 -0.005638759049258946
1632 0.03206537395808802 -0.006470696656435857 0.0024151244297268486
2632 0.008105212667698081 0.001926396015616971 0.00020080191079221865
2634 -0.009744129705608076 -0.010686360769755446 0.012559437393025803
1994 0.004616667688971786 0.018770023158357435 0.012810818537750854
2451 0.0026279280160959443 0.003182022259278169 -0.0024544333133690727
2450 0.0059444361893041765 -0.006486841275094983 -0.01066517830857142
1993 -0.0016062217372395098 0.002646823694215775 0.003604634570295559
2633 0.0032491518012946596 0.007337577637839968 0.005234491778083175
1630 0.0023446937434278992 0.001408230528744521 0.007227834714326081
1631 -0.01491707882440165 0.013304397741138813 0.012654507792630876
1904 0.020091546663056604 0.012736751489726228 0.0018216853521902466
1905 -0.002064289948329084 -0.00016993946924360908 0.009318631251557472
2484 -0.002050003900227337 -0.0026633863072448487 0.00394395574460624
4268 0.0012634569369735986 -0.0019239849705193271 0.0007345392352732873
2763 -0.0018938368420621796 -0.0050694855342472665 0.004632488938516115
2283 0.019855139204445645 -0.009700278443480242 0.0033281032582197054
2281 0.00594104757425216 -0.00514361289305842 -0.004896778155724705
2076 -0.005563346176664306 -0.01793746698711783 -0.0331735146565508
2074 0.004210194102493666 -0.0006952578483388978 -0.0019741548695519713
2075 0.0022977872842971764 -0.0128584984452264 4.5301093250932914e-05
2697 0.002452323922847138 0.03204533132251086 0.007881332784682315
2211 -0.0035414738216784612 -0.01153977878094066 -0.0014352272853266305
1995 0.0067695370883336225 -0.003955404858760951 0.010829791459675702
2563 0.003067726853586464 -0.005067845197447855 0.0018862474881795866
2565 0.018989796346521825 -0.014927289797415493 0.005092308199122657
1903 0.0079508164992812 -0.003181553256465214 0.0013295964142390358
3213 0.010279584472681012 0.008409529713508924 0.01851949578212001
2360 0.03153409784902249 0.02127027448005365 0.0013544688587753767
2361 -0.011374842330930507 0.0007611675701979703 0.010972534720355738
2696 -0.02451307348297424 -0.025301933481485774 -0.028732831341644793
2695 -0.00039330013759765676 -0.0063904765244948035 0.001220069322077019
2564 -0.0022933316405506065 -0.002294085834985257 0.003778968523312883
2954 0.012574260863527323 -0.005778272856966316 0.00916167108593669
3211 0.003383346752227382 -0.0076145578095188895 0.0004895866951251234
3314 0.00691101107698277 -0.00996500292471653 -0.0034694007108349535
1866 -0.00032110239687903916 -0.0034541391039072224 0.004937046540096033
3315 -0.0016932491973359642 -0.027889451776632615 -0.013223039260945188
1864 -0.0023103521405963548 -0.0016720575664582267 2.912718845675514e-05
3313 0.002552429793814798 -0.005782840878110417 0.0010045815358353527
2955 -0.0023429394792025596 -0.022279941958967122 -0.004693498240701052
3424 -0.008562784062409649 -0.005376224820756367 -0.003063564577850938
3222 -0.0003878140440717957 0.0006999252970286804 0.02187712865703949
3221 -0.004936618780740703 0.010549084340962219 0.0006107054554213504
3426 0.00664943420658101 0.03777277596857656 -0.03941739188650864
3425 0.01045568271805978 -0.013586896165511217 -0.006753303299806402
3220 0.0019485129021729493 0.0019715898744490285 0.00855401464287553
246 -0.009468851548299451 -0.025687360590612746 0.010161191517817643
2010 0.008701651942474293 0.007878963236222097 -0.004090246706582004
2009 0.015163177059086343 0.017769730211864773 -0.002049159480772563
2008 -0.0024438432009464737 0.002715584145720592 0.002109578147227277
245 -0.0012906105700804427 0.0025100669336429694 0.009890619354105942
1753 0.0006119745096212194 0.00443811132691671 0.0031445404698526675
1754 0.003675823007232314 0.0028918037019533814 0.014245160838434126
244 0.008384229846701875 0.0007054416255417081 -0.0009386702072829316
241 0.02840333616059087 -0.006831892580633141 -0.011633584636258123
242 0.0035421434973692888 -0.0018114712677182582 -0.0033005868407023206
243 0.004683577368628801 -0.006494306763553108 0.0002288645192241032
1755 -9.481733381718949e-05 0.0018526194514797154 -0.0038254281845713487
2585 0.005124325900552187 -0.009068385530159283 0.03202653206206188
2584 0.0005839694233494014 -0.0009837107203230552 0.002742071884116724
2449 0.0020255877656086474 0.0011726652854020202 0.005336920836080682
2672 -0.015968309354956738 0.0022705194901715465 0.019060985385452603
2903 -0.030830325804934562 0.015799680104311264 0.002197056029240815
2902 0.005088201556709343 0.0023463121784376064 0.00044239602191797634
2904 0.001911866888135775 -0.020429952413075787 -0.015353117902299976
2483 0.00692487100239573 0.010922629918305742 0.006325075703781277
309 -0.020966732951487283 0.0014072414522016752 0.006908986751405339
1566 0.010819009371304793 0.014411877744879797 -0.024516383054554544
1805 -0.027870589378482944 -0.0107355151485692 0.037242137701135866
2673 0.027626614090958103 0.012157211619042799 -0.024856206281557856
2586 0.0042102959157843565 0.0030281082684913622 -0.01849578814368822
2671 0.004160585440934705 0.004480623225134927 -0.004717433303091115
2048 -0.013535822278883208 0.01109946961814783 -0.0003590418414639892
2047 0.005360689883066951 -0.0018105262185665724 -0.002916459988479206
2049 0.005320310167273194 -0.006521573585944382 -0.0015268525670746997
1804 -0.0072350188316394936 0.0020489187731658194 0.002586913030053034
2627 0.025419621822182735 0.014629802092797673 -0.002663137081662727
2854 -0.0013377659478148631 0.005080890824242218 -0.001004215762914472
2095 -0.002092901373303671 0.002912442362542873 -0.0009297214963773475
1512 0.0004442686640902626 -0.015523436792369538 0.018891242311635338
2856 -0.0004555978350117586 0.015228583374681236 0.0008393370558251904
1565 0.0038915537773228192 -0.010461989669472253 0.0038607819778563035
2276 0.010693931503401262 0.015201916341064967 -0.017763837958873263
1806 0.017000649689267296 -0.007391445535761961 0.008995245363796629
2855 0.008907708297004577 0.013574952715985807 -0.011153741326431214
1511 -0.014412533143230917 -0.008558066101599185 0.013239130269423575
2096 -0.02074065052730057 -0.002897985153307892 -0.006331685171284055
1510 0.0021869135184845135 -0.002523338639111926 0.0035835478438577257
2191 -0.0008445611660056664 0.0018666145707722328 -0.0003258516128501555
2192 -0.0031926775158714602 0.0048619696563701 -0.00033689361909169387
2679 0.0017158434976935824 -0.0005657720083361589 0.004941165822155905
2677 -0.0049132918925724545 0.0038583537212908423 0.005294199810552405
2678 -0.005591753700729828 -0.00620294462005517 0.010335282209165767
2193 -0.008433482476428363 -0.015033243406664244 -0.006154368964632112
1853 0.00015817378236351762 0.0004981145729623693 -0.0027315241839117412
1852 0.002066512207733129 0.0008605268484983697 -0.0010133569464572988
2097 -0.008253727160030195 0.011215749891389622 0.00018539959224067603
1854 -0.00268186644708638 0.016553070268517933 0.01939505358953394
1564 0.002016348652573179 -0.003177548507544684 0.004212755836776692
2626 -0.0005568441154042898 0.005073449346218652 0.004831553473479069
2628 0.0067432785720648895 0.005452421213410125 0.005816322986926717
2890 -0.0012227023360102244 0.0008687012532686423 0.008065622940209754
2892 -0.0025128157821877523 0.0011572785431609165 -0.0015124177401611154
2891 -0.008628177126897976 0.01206591391050864 -0.013592921729959843
2372 -0.0026532823812478613 -0.0182018204325931 0.012582955273645866
561 -0.005378624806341701 -0.0012438773292628796 -0.02296859540736098
2334 -0.006429399633364473 0.009046233632672474 -0.0014112886870401992
1721 0.005408759388475649 -0.006422173390809481 0.007465326477587201
562 -0.006232859553373459 -0.003766272448226887 0.0011313377916877863
2535 -0.004924511207858913 -0.06228616068617105 0.01210002532234041
1720 0.002854975243238629 -0.002736020649870306 0.0031617868993569645
557 -0.0017860443442392771 0.003310450653959404 -0.0025205379213000963
4101 -0.0006360067877031006 -0.009085998885422216 0.02891597070077902
570 -0.02314907654321524 -0.0067094310623344155 0.011835477403460148
625 -0.0005280325378112563 0.036150987839001954 0.0006384826753304358
565 -0.011756194938271807 -0.01965495133645348 -0.008879735033959488
564 -0.046916070976970696 0.01652317024772238 0.012178029434914214
569 0.004952868107738158 -0.0037397284986543256 -0.002359238683087393
2534 0.004313146427506198 0.003242296052061687 -0.003993409660904788
2953 -0.0022640165047356224 -0.0027386402786564673 0.005774829896337392
2359 -0.00262163746969998 0.0067806470620395 0.006730099424805015
1865 -0.015135548193187975 0.008016044592684584 -0.03282496583215302
2262 -0.00045242968102233994 0.007324824590756779 0.0005094217854022378
566 -0.004009019315833903 -0.014521114172012673 -0.00098521211371038
563 -0.004701000758921652 0.007018313869071367 0.001187964001539803
1265 0.0015306025464296962 -0.0037347285399009686 0.008021524408795005
1392 -0.0058791976721609745 0.002117588673786485 0.0052622536490544705
2261 0.0031010450310195166 -0.011276954767802317 -0.007287285311585308
568 0.00996482313612449 -0.013285804390418661 -0.010176666221278996
2373 0.0032472376316735317 -0.04463037043185039 -0.009687904863061604
2333 -0.00761514774410275 -0.0044742186555993034 -0.006192579427211302
2371 0.0039270382265645075 -0.001796568433080728 -0.0005611458453854299
1393 0.019555971771628006 -0.017461939472824647 -0.005565662972233975
2919 0.006310368358834438 -0.002593883936192133 -0.014711964369013753
2260 0.0007086567482983979 0.00019177112483611858 -0.0005630858248164949
560 0.004932963458479362 -0.004780648425047831 0.0026316638230705356
4100 -0.00026564403325195256 0.005210297205097676 -0.028442937375664133
1868 0.014555466247176832 -0.016117377106837687 -0.010290336636390776
567 0.0006652836813586889 0.002379384956472442 -0.0007418408084242788
1385 0.001169097727453361 -0.008805887367698537 -0.003540096588934061
1387 0.004014047538726724 0.006216094631931215 -0.006185140372139493
2917 -0.0026775624594556715 -0.0059606163561042105 -0.0024504734291173344
4099 -0.0013387357372646803 -0.00027582199752085285 0.003704696079940404
2332 -0.005475962097201326 -0.001448869101035881 0.0008923441500344321
126 0.020461639601705415 -0.006918091893206478 0.013651561309442478
1441 -0.004828204564844889 0.006507783956501093 -0.01805460733667184
4220 -0.01939593518013906 0.011932622111189346 -0.008321995856799142
2166 -0.001122164177844998 0.009115181390299829 -0.012141476299981167
3204 0.008066183870786166 0.01921210032768654 0.0014908758359087689
3714 -0.004767953532337676 0.029140510187810487 -0.004356597887880565
4252 -0.003989305513768394 0.004126388013918634 0.0035318358855709075
1886 -0.00016402602926362901 0.007245951005878335 0.002753844028531406
859 0.00042465870068779225 -0.025048741243850953 0.019779259468527852
3483 0.00425587268874155 0.01834400271118173 0.010419203467286347
3504 -0.0007748850228394285 0.004824015458008606 -0.006838712481025105
4344 -0.0002767019065411467 -0.009717597757644454 0.015967860299798176
3068 -0.021712665172269597 -0.009241330846934822 -0.012538116956547735
580 -0.014587077075367251 -0.029498439023184116 0.019095271793789944
975 -0.013749509780520405 -0.0126074625774787 0.025438723294286144
1802 -0.007582529717791483 0.002723970052771203 -0.009037584777504376
3502 -0.006668679085090466 -0.0017186369591618328 -0.0037357372649760483
1718 -0.032279316746364965 -8.400734541308821e-05 -0.02020929678576607
2124 -0.03311980501140745 0.005445179843750969 0.0022581660420113985
3303 -0.01929458563167762 0.020160219974802607 -0.025045446311111847
156 0.013266092955153809 -0.013985635123051395 -0.0008417752272206738
588 0.0033855243127176517 -0.005260229385167858 -0.000507066414962963
3090 0.025387643013450662 -0.008995300688899314 0.026455384181013817
3089 -0.0044703012550152705 0.0011865183310110709 -0.005357031900148608
3088 0.003802206737822578 -0.00036950552711969913 0.004767341184276632
3238 -0.001528547457297048 0.003960892726782984 -0.0025495209683090423
3239 0.01376879692910024 -0.011784718699750387 -0.0053940070793288475
3240 -0.014114276454473527 -0.0012749143136555532 -0.003979006738656928
3361 0.0040103295936464315 0.014227311132461219 0.0033061078399393073
3363 -0.040314458385706714 -6.81297208977902e-05 0.004183272192070768
3362 0.01865153680626414 -0.002722002463156411 -0.0006695281645834502
3945 0.018229085475990715 -0.00025902320748295355 -0.01240707333539705
3712 -0.003264668417644949 0.007928929263382494 -0.003610458641598264
1701 -0.011389504046118432 0.0031307211870580903 -0.005250730711422644
4304 0.012272233804451992 -0.007466886573841213 0.0038439791637733547
3321 -0.012270831633689461 -0.008020785879619503 -0.020803315157998596
3320 -0.004898014369509725 -0.006773052038690886 0.0018591501963815754
3943 0.002117783438709593 -0.005962304519901859 0.00048488600991304263
4305 0.02356657436955005 -0.010807291743887396 0.004491512704725313
2525 0.010758943100002366 0.01317233779865348 -0.024459149161712556
4303 -0.000581446773697617 -0.007550970913998076 0.0033443778735107437
2526 -0.032971750572962075 0.03140218629204453 0.024680909272126957
2524 0.001462361225132123 -0.0017647708329979537 0.002828740254463148
4339 0.0005414987911153186 0.00233356318001896 -0.0038983727584419544
3265 -0.001052206393110731 0.001501883225840834 -0.0067902439447308175
3395 -0.012204891906237691 -0.003947911101822777 0.013735542628880668
3792 0.01338886359121736 0.004125946357172294 0.0018741283590421578
264 -0.04090245205102049 -0.01667421221285117 -0.00294492579270781
3944 -0.007113361376923346 0.0010318696972469858 0.0059398514744021256
3790 0.0008565663836382511 -0.0019519769411896315 0.0035488137251352284
2582 0.00691669494123576 -0.0026810497389945934 0.005496761007741328
1422 0.004389251426833263 0.005662617358810347 -0.006750352574313594
1415 -0.0009869391359311535 0.004681401295286832 -0.0013591647310904292
1417 0.0025828052559346997 -0.008458769595806286 -0.0032073619647768558
1416 -0.026344754298401298 -0.02450644734077724 0.01685303087623945
1423 0.030166995094061115 -0.007824256082567692 0.007683241706614151
1418 0.00018137973604261747 -0.0107462438921613 0.00237252892029308
4341 -0.02084138660119825 -0.0045340836756614265 0.0259840548842559
3713 0.005179348520053842 -0.0006789089480472873 -0.0002943476122394866
3954 -0.001181544936912067 -0.0015549938130358925 0.018294890559586986
2583 0.005751207540069618 -0.008447844893109634 0.007127323141347701
2581 0.004650932164967184 -0.008280242914757848 0.004546711520462945
3003 -0.009598706525015875 -0.006943092788716135 -0.027190277971636156
1420 -0.031051645410655575 -0.012419977721189569 -0.01705218938163
3002 0.00601502070179402 0.02222215709236037 0.015387293592156017
3267 0.015013012664656121 0.00682076373417221 0.00017799179649103278
3960 0.0008230403222489504 1.7747119190627707e-06 0.0036599818434342583
4110 -0.00346509559546215 0.010580162074847356 -0.0018611523696634962
4109 0.002020761000787673 -0.0021220318640868207 0.005544580060637507
3319 -0.0015065873100040313 -0.00841310178282806 0.0017798436752265198
4108 0.00032026082880816386 0.0019895108164998225 -0.002299089101487166
1419 -0.001352787670573762 0.004227277647439483 -0.005696750724852584
3000 0.01086374042748843 -0.011659269396627646 0.011082763514957843
3941 0.016031835035842396 0.026413004276321518 0.01610120029514699
1751 -0.005380803308950107 -0.0021457939852837066 -0.006055664491773324
3266 0.002470703618574914 -0.02443374747707567 -0.019920906222760392
1750 0.0005462735021623345 -0.004853352435877839 -0.0031073284714813027
2999 0.006279954412278302 -0.0011429857635287392 -0.00431969368797573
2998 0.0014075029542122445 -0.004064159163616559 -0.00108602951925704
3942 0.004881446701178548 -0.02173219241653992 0.0054167743264815485
3791 -0.0007356483068785495 -0.010243455753782486 -0.0074762371111552935
3830 0.0017699831500838092 0.00975040299990148 0.014861741685814459
4119 -0.003773658952932315 0.0032545727355223833 0.009984314078519282
4117 -0.004133607309570767 -0.0008734398153945576 -0.008870837790280998
3940 -0.003119548365970321 0.0012062634711163674 0.002025937875008621
3767 0.00582175304229734 0.01070200862807722 -0.0012381831384121146
3766 -0.0047169962646912604 0.010718867589163348 0.001610875697477564
3868 0.003521106046045619 0.00878345144587653 0.0011388210478051896
3869 0.01791010670093095 0.002387622546549642 -0.005525386118597923
3870 0.015055760519760016 0.0118446610622741 -0.012521957151321383
3768 -0.0038025666162553764 0.014831292537509961 0.007639082301093608
3182 0.02927707965487948 -0.044326081740041406 0.015117334802802845
3183 0.03182608756470839 -0.007091424679347886 -0.010239586294978582
3181 0.002228288259541853 -0.006759881327875186 0.004767183609575487
4393 0.004457431024326197 -0.001159136794926213 0.0054794322603742215
4395 -0.0048500313396920664 0.009036150525879407 0.0188257623454146
3746 -0.011642257613731732 0.019482368022277603 0.0019690859595245178
4394 0.015174815140345509 0.015095760141159393 -0.014894152812709989
3769 0.0016828573082051 0.0007017409888539435 0.007572128272848204
3770 -0.0018055449603411257 -0.0018338193908575854 -0.00010774301227264192
3771 -0.013347165045411677 0.013747733405618065 -0.023799638343369914
3745 -0.006202214572712693 0.0017708466756002166 -0.0031358088044338
3747 -0.0004027080628835255 -0.012069534718038037 -0.007757063053980373
3083 0.00844472113508912 0.019103480658161625 0.022216298904458903
4307 0.002396695202035924 0.0005633478179830856 0.006274543753468093
4306 0.0010388464937610379 0.0034380614945523124 0.0010681477900581127
4308 -0.0016737608567582436 -0.0006409632275474414 -0.00723224898721844
1752 0.007647348111654448 -0.007297525486648964 0.001059343355943032
3823 0.002772445460299402 0.0014919463113100882 -0.0006684874553435066
3956 -0.019508539467811295 -0.00782863281050724 0.013267877518192842
3829 -0.011171357386809015 0.0024530075688715945 -0.0016206206824019086
3831 0.002657860667882815 0.013560077959105429 0.007995078827851297
3082 0.003182300351396856 0.002556473030227282 -0.001653345216634641
3084 0.00988176507223815 0.009563772372281142 0.006028834325392149
4245 0.003556468659279317 0.00839363077939584 -0.017203866810610882
3512 0.007912465385458433 3.434520322495006e-05 -0.016488606599096668
1170 0.00023201249309841927 -0.0015159619757791386 0.010600431091906205
1169 0.002781176169223002 -0.0015893627735195114 0.003972362319971502
1156 0.02139704314277343 0.008916999686971926 0.0012763403596154964
1157 -0.008562808919855369 0.003416861519972103 0.008434435015929389
1160 -0.0010414280310569472 0.0022838288773672933 -0.0014253724951973524
1167 -0.0069056945179255666 0.002268502094163161 0.002356671672692453
1168 0.00991339912063098 0.00930109743290307 -0.000746289343931128
1165 0.004147808683339088 -0.003181393260473618 0.009588664588832884
1163 -0.003103755930056559 -0.0036370709073348787 -0.006027755427350105
1162 -0.009097995261584902 -0.0034857797331725756 -0.001560886559906369
1166 0.0013278735104251015 -0.008068644461349066 0.008013198076786217
1164 -0.029194815621317243 -0.023587884275412425 -0.0003451040247095796
1158 -0.0021159149054405953 0.005259217709144047 -0.0006552647330737788
1159 -0.0011214800068957195 -0.012639090845716195 -0.005455711232532307
1161 0.019786174804695723 -0.006036289138835003 -0.029053821672823336
1424 0.0016970240847547498 0.0016983878162733855 -0.004166472796941124
1425 0.01744406057078871 -0.03398581109938515 0.007286622899763199
1411 -0.013972581914705585 0.008233640528047122 -0.008767625942161999
1412 -0.0011957219917961709 -0.0029497185529051588 -0.008592393752946932
1413 -0.004595841113765299 0.008800982227882614 -0.0007164700998102326
1414 -0.007872649599929232 0.014636293251939145 0.028529165054168325
3677 0.0006810349103448344 0.010857943043731343 -0.0013264090572351205
3676 0.003547187521966018 0.001999392747953366 -0.0020979630745685115
3678 0.011094799608396395 0.0022353118363963374 0.0017569250941369332
4474 -0.002418912686786006 -0.005804092068474158 0.00024033633757521456
4475 -0.014623693778273638 -0.0018746681725324455 0.014033559290101558
4476 0.007628375903454731 -0.01388695871678098 -0.0012143715815925453
3458 -0.0013946971855906699 -0.0017192238587122413 -0.00997122809139954
3246 -0.0037513687991093817 -0.0004996335624224447 -0.01980356629946519
1275 0.02574225550471713 0.023345912718544325 0.012449408909960961
3244 0.0037711169390579257 0.0006780242368136773 -0.0016727262938220336
3129 -0.015888149770460776 0.0062374594500604515 0.007147216472225739
1274 0.0025754305217724847 0.001012768080640197 -0.003292967219756216
3318 0.0004389900805313279 0.00526718445275955 0.01590650743193307
3245 0.0002760529441851396 0.01627947650215198 -0.0037135347941346358
3317 0.019059177868616196 -0.015379569422858766 -0.005028863009347133
3316 -0.0014463181498774503 -0.0024099325609392426 0.0007260039696126107
3664 0.0006649086250168773 0.0016443738202414338 -0.004790741195750803
2972 0.004927460923944963 -0.006680051598447874 -0.009768709249840623
2358 0.002678717676128452 0.013144714108829083 0.0022516119601246587
1800 0.012558191275309443 -0.0008604802246197663 -0.010285995166201151
1262 -0.00017495243688894576 -0.0019538287316880373 0.006402017229484677
1263 0.002619808404007622 -0.008260320229700047 -0.013036884260245605
1261 -0.01517887567123891 -0.015184510011164618 -0.02167234528373852
2366 0.012377812382778863 0.005156828206917398 0.017855301266282396
1803 0.007350100416932667 0.004203759286250392 0.010550949144889686
3885 0.01313317200642642 -0.006515928197247539 -0.003057995344240946
4461 -0.0026716797317360196 -0.012562895058274008 -0.0090798962657594
841 0.010142255484856904 -0.01725519318086971 0.0006590943170847755
842 0.004552821566923163 0.0011341392679702293 -0.00365351926078653
3957 0.001535898668871473 -0.0013983591819380894 -0.013522873831678144
3519 -0.005215695775996214 0.0019411037642412384 -0.010926890030531095
3195 -0.0038911832250623484 -0.012796743087248938 -0.00030150829533160675
3193 -0.0007476472635595619 -0.008365007262861024 0.0003320862339458855
3194 -0.015316720073184636 0.006714999974365739 -0.007880230226556786
3469 0.0032202400739938172 -0.0026656721990099357 -0.0012764952384358202
3470 0.0010195929694051225 0.00462938981476852 0.030364539479216777
3471 0.01057678816780052 0.0007919075364350076 0.00817704507610273
3918 -0.019447212999084237 0.023706305119130824 0.0035990474814437392
3955 -0.0020093325972424803 -0.0024995754980480962 -0.009006320111183458
4480 0.0033077614928812902 -0.0036510189989759504 0.00744888318315903
4481 0.0010505641658681009 -0.001510976737528699 -0.0031379210129749134
4482 -0.010996896645587591 0.00301998277539195 0.00336119242518699
3917 -0.0016554163570301319 0.0021464608650151964 -0.01485033488592975
3756 -0.002169845169165693 -0.009363257855956365 -0.003984834656328341
3127 -0.0006798483692235416 -0.000986571243792077 0.0007752265045526673
3128 -0.00810818159485025 -0.0008280038523411968 0.014547545827290715
3666 0.01314173949128741 -0.005119631748493732 -0.00885321358489154
3665 -0.025593559298670795 0.01185376392344939 0.00799193597359066
4499 0.020761021349073903 -0.0013254753807558331 -0.0022069235193552016
3916 -0.0036043137783417878 0.004224684021894578 -0.0008954921452951887
3218 0.0034335220072055595 0.0029413029884166756 -0.0064515553434923625
3063 0.014125711504643507 0.0047736507803845234 -0.0011815123992644507
3062 0.00504407778043502 0.0029520417266290255 -0.00022565608488545538
3061 0.0037168782692816055 0.0026861465370212416 -8.610464797720239e-05
3217 0.007972820642547897 -0.0018814094060818191 0.004193231142321863
3704 0.002632258538602428 -0.009730475652034021 0.009389409005606737
3703 -0.005585882591529271 -0.0005062568144785024 0.0015796774287934203
3705 0.001209069301687109 0.01038084604715982 0.00039146024208398556
4498 0.0036298426525573167 0.0028851322113135464 -8.905503514597143e-05
3152 -0.0020723441415564582 0.002178107482545743 -0.007130020591563614
3219 0.017041178625376272 0.009209839728674831 0.009504240796353397
3544 -0.003966607922298733 -0.0014173790981895364 -0.0016471116853016118
3546 -0.010857685980160068 -0.0014318787113163805 0.016404542350990436
3545 -0.013328346380804802 -0.025714357690578463 -0.009136822203723999
2971 0.004669683529297009 0.0018764310802965064 -0.0020197913443856753
3754 -0.0011593361177223828 0.003774920021952506 0.0022950692987978075
3755 -0.007651913732975831 0.008640392927723655 0.020820193290150713
3151 -0.001635344793269723 -0.008645681350008377 0.0006111775050719473
4374 -0.007315633223056301 0.024759958715313574 0.006005512257144546
4372 -0.004130980795417062 0.0031025339336641427 -0.0060162353860707795
4500 0.006993091945548147 0.011321688144861508 -0.0017627989737084614
1228 -0.004224150972774599 -0.00898157875222899 0.018481629916651577
3570 -0.006050054077229684 -0.016883279902013038 -0.01980957658348814
3568 0.0003618528769711745 -0.005695386128101629 -0.004646692793628254
3569 -0.003872929002070319 0.010839838485372424 -0.0115315166333482
1799 -0.0017627426892953654 0.00685418339056897 0.013554925134897625
1798 0.0005443987192757988 -0.005718682377118085 0.002206223365662626
3012 -0.01168579356443458 0.017244178476757428 0.012871361999607653
4472 -0.0016112888212061504 0.009848193385240504 0.003708829946301892
4471 0.0004689414511462419 0.0015793712856803778 0.00329659235886324
4473 -0.005598491973859299 -0.0028079772008341632 -0.0043207640964561195
2357 -0.0008789341542556167 -0.013470326275539887 -0.008540827468838995
2356 0.0038706604474905604 0.005653341490353381 -0.0020825613549878027
3010 -0.001380017525141599 0.006075067237007303 0.004016800871444492
3011 0.016197210006020143 0.011717466684060849 0.011700681728006887
4227 -0.009191743388451346 0.003933258410124971 -0.011020231121531306
2982 -0.005548229322377378 -0.008084759816739734 -0.0080923640038998
4225 -0.004120297551295314 0.003106211501052687 0.0019025278653018415
2980 0.004397563529849059 -0.0014984671923815383 -0.0027301611111314617
2981 -0.0033112146438139924 0.007488655804356968 -0.018894973272160522
3053 0.023606629186002776 0.002152950456907043 0.0009310730448537529
3052 0.004325367720540311 0.0004480851035178623 -0.004859208895680665
3698 0.006965655476428172 0.007641838235440026 -0.02536062450557106
2147 -0.003225588078887329 0.019746080138164646 0.008872996718596827
4208 0.0019869473449683197 0.00340992902888812 -0.0016086475783939715
4207 0.006449168714777777 0.0025827222032862576 -0.0009643250823433133
3697 -0.0018823574108846333 0.0006274884714775921 -0.008862569881957478
4226 -0.021306158035463322 0.012904335944714117 0.0006658161854196035
3323 -0.0011041619309529042 -0.006721021087981586 -0.009449049213698307
965 0.003625184551766457 -0.0077751003788942485 -0.00519854890452382
4209 -0.007570986021121944 0.004664320992515965 -0.0006076966136660759
1350 -0.01583182931853359 -0.026475149159101267 0.011800063088216035
3322 -0.003578331727842324 -0.0028256095882484918 -0.008580536320921891
1523 0.010657999593808924 0.006591542669350699 0.002699218646745968
3324 -0.008564263408714263 0.005130958243413898 -0.007284956445115341
1522 -0.0025332153387250225 0.004602228617420541 -0.0012585546677139129
3054 -0.012095990781318781 -0.0023839013926680607 0.013277597140243758
2973 0.0017416045455209805 0.0027604632535578374 -0.008584872576931364
3994 -0.006648209753157688 0.004150679401636964 0.001613852656874032
3171 0.012194874317257407 -0.0008262004849980415 0.006900599332761032
3169 -0.0042230065472536535 0.002153614049721336 -0.004367968304914302
3170 0.008263061055321059 -0.006597565964623839 0.006058200748840706
4484 0.009417319024348872 -0.0035043537435286726 -0.021114863639812003
4483 -0.0009747911141823923 -0.0008366352276529754 0.005383532157935163
3289 -0.0012614923155114541 0.005372257005364803 -0.003097463825664704
3290 0.0010500012000189919 0.004383295516151854 -0.003686467002232254
3291 0.0068549491234063615 -0.0164822312978403 -0.00888436878059424
4367 -0.022404126683468317 0.00590548988031518 -0.0033534328929795145
4366 -0.002369773932856261 0.005212258430239458 0.0008350267417768905
4368 0.0019524143225571008 -0.013676521849245971 0.009137408095162242
3699 0.01547082438161133 0.016658136826772973 -0.020871467160247646
3934 0.0070941477243015175 -0.003284533402739919 0.0007820874660656366
4485 -0.01696907596226742 0.02439916185125307 0.0036682430943482825
3564 0.009735756858134607 0.014049525149610949 -0.001491866780796486
1336 0.01704649173326234 0.016138061035857992 -0.008210468689335594
3048 -0.014174734828162248 0.0021782592249582964 -0.007894956227639211
3482 0.002028323212511924 -0.02137627371602497 0.004887464629054643
2719 -0.00014889075994670148 -0.002169443208914156 0.004911202651850403
4463 0.002641926152524236 -0.007464668689203404 0.001046495741158025
4464 0.002688155467143206 -0.010381082913499115 -0.008531294200217341
4462 -0.0005953519764775624 -0.005126832393114166 0.0036788288663980014
3493 0.0019461516924780718 0.0014994453617779141 0.0054901802336829114
3495 -0.005884290576763314 0.012596828194597218 0.014420040614255352
3494 0.004734150339106626 0.013028023789220964 -0.0010372651034554698
3796 0.004421869632670552 -0.003502619130563291 0.0018698086131457145
3798 -0.008312145913446011 2.1924845843531093e-05 -0.002340168568754619
3797 0.005542060823055156 -0.018639663687333836 -0.006277229297761222
4140 0.0007719644865922162 -0.007168918530271591 0.008227476082618037
4139 0.0030654813346266763 0.013661023106779692 0.0042887900365824565
4138 -0.0009064980229042631 6.048823988821078e-05 0.004304873126132679
2234 -0.03149216390721696 -0.0002952326569383988 0.005838815401590953
2233 0.006285401739857948 -0.006009809856424953 -0.004749965075938465
2235 0.021084820462694723 -0.004007591753966415 0.011695387709894855
3961 0.0011703411883250035 0.004943788053427744 -0.0028732574484996577
3963 0.0007698438728319268 0.012223517879070377 -0.020800656252334827
2966 0.006747816975011179 -0.005825747734341494 0.012223960862451063
576 0.00489154729394582 0.009775381819770938 -0.010356866970161561
3962 0.007744815692125695 0.019485254761139575 0.0002930734450728356
2843 -0.004144923158092774 0.006973851450249413 -0.01947940541062258
501 0.012313653538600585 0.027414598474598272 0.005519470840700254
2913 0.0014261943693349083 -0.0036093843348768747 0.01404389803120443
2967 0.002784884319310801 -0.002819286980872482 0.008893442707596124
2965 -0.0029168659206866817 0.0014928447819005392 0.004074989332976325
2911 -0.006065356532684658 -0.004090498485984683 0.0026166874838895815
2912 0.0026167468519737867 -0.009529728390395627 -0.008704081552561018
4165 -0.002257673020629405 0.003919482662276287 -0.0013965670330212082
574 -0.0021596318597540843 -0.004530924533334604 -0.017046107846933747
972 -0.0008981517499532202 0.0032037766971659424 -0.007972258389496105
573 0.0032194993022136116 0.0005977603221605367 0.004368011795367879
577 -0.006078249149745911 -0.008334919123103085 0.004862394191789639
575 -0.002705436252829174 0.004316042240272003 -0.002765728319113079
3741 -0.01389597550970212 -0.004942169904954477 0.014668625221222463
3739 0.0008033774617122319 -0.0052085675668405995 0.0020425955087967447
572 0.009391013496516247 -0.002502265456377095 -0.010833691169422975
571 -0.013412102616935788 -0.026359934077997832 -0.013876967608024052
1839 0.010958109904200332 0.027218480785875503 0.017229120277702684
3442 -0.005799181454718568 -0.002252912351100195 -0.0006261651510810641
400 0.0010987321805491766 -0.01150383148408516 0.00025611266884479635
265 0.004742233177185946 0.00986548862174692 -0.018765902594947904
4327 0.0013838215634288725 0.00038227037361347174 -0.00012991833716403077
4489 -0.009777871234394588 -0.0037402177081568384 -0.005119680365384136
4491 -0.008151636140887783 0.0033706959858918195 -0.0021755757281605777
3936 -0.013930136578500183 0.0018231613036351526 -0.0015994546675541334
3908 0.007723695387417112 -0.013227918366210805 -0.014787866383930709
3909 -0.017146309757712988 -0.0037110473472050038 0.0030393406473749954
3907 -0.0036721158824216294 -0.0045370043522907615 -0.004965247081669712
1536 -0.00861320134324629 0.007547546931426992 0.007408169056294987
1535 -0.012051521791877351 0.0001382803123210397 -0.014599357933544183
1534 0.0012360450453355175 0.005853492428120794 -0.0003238945300874115
3813 -0.006417585654910617 0.005892793002806965 0.015031524314196534
3811 -0.001044318952669016 -0.0017418459786201822 -0.005416516010606171
3812 0.006879654578928786 -0.006245062500182868 -0.015143779476163173
4018 -0.0015171842005653098 -0.006611458665408241 -0.003167686099293094
4166 -0.007192004945702686 0.006943246240649523 0.0025364454504422243
4490 -0.00103687413533278 0.00021998602959890886 -0.005595359173710524
4114 0.0012621690007196082 -0.0038277353248964393 -0.0038824766770825013
4116 -0.012362094496336122 -0.0014962215641229194 -0.01239606374122734
4115 0.0032981602610546233 -0.007681679310981775 0.015354356154118483
3251 0.0038201548502358362 0.0015868229084467248 -0.0012494121254467052
3250 -0.002339826136965673 -0.00016292561864248635 0.006787716866560797
4019 -0.019723715895060924 -0.007551844516519369 -0.006827042541548594
3252 0.0006119356595835522 0.0006711667889212726 0.010409182060037396
3935 0.005623265336251163 -0.01838113060438211 0.016435587698496
3386 -0.00395186986523078 0.0017215105849806487 -0.0035693015051345245
3816 -0.010660943499423406 0.0020027092315831963 -0.00399056147933844
3814 -0.0004333688961497037 -0.00012946163413588165 -0.00265236896406288
3815 0.013253523229885527 -0.000614920513793196 0.005079820951547529
3897 0.007727749523583209 0.0026331418766148843 -0.0034811402479777765
3895 0.003690840183771292 0.0032262940518926002 -0.005373275596924549
3896 0.0035066804178550443 0.00044764744639026234 -0.008362240205581468
3121 0.007776659441047487 -0.0038518118352516184 0.002984787488545651
3122 0.0010959956448869798 0.002103807377200482 0.003453765463797324
4408 0.0016338987605637133 -0.0031947829815874664 -0.005948180044265507
3385 0.005743135530565448 -0.002451328115925542 -0.0034829245385929945
4086 0.012845062831476585 0.0006788855037455517 0.01092923989743323
4232 -0.006317947098000047 -0.017858576472049473 0.01499343192950618
3920 -0.0009590032029141992 -0.0036087885877171873 -0.01576498599664181
3919 -0.00392198733311321 -0.0029706479633725418 0.007595624366744434
4231 0.002391793246818379 -0.006442795922682021 0.0020437846522883946
3123 -0.0029950387674999145 0.009492454247141959 0.007481852768362982
3387 0.008756956637085082 -0.008153985093724102 -0.004195982964110547
3921 -0.00869048490108999 -0.004778863625162356 0.014517661077369575
4492 -0.002405696811583937 0.007577495776095759 0.0077443618105186175
3668 0.031213813095016283 -0.01627080672625341 -0.010295813764398525
4314 0.020441457155094576 0.03414315767760962 -0.002919608352525427
4312 0.0014052940925530764 0.0003797430334127454 0.004298440883244309
3044 0.008783759442512041 -0.01366063735395199 0.0021044390620217897
3043 0.0045329522048907995 -0.004054024285820162 0.00618895530825516
3501 0.0007681376510589186 0.006052325554774963 0.00015598382747838394
3500 0.0008666772258057394 -0.023674078800891236 -0.0012310707240426304
4409 0.006732833027301714 -0.006516200185538769 0.009582608475991674
3499 0.0009407211574203164 -0.005077815000167293 0.004039845133347258
4493 0.0032300400132912973 0.0037929716124526108 0.02238659467295164
3669 -0.017767558078466292 0.005847997269679619 0.007974492856868715
3045 0.012746765295419533 -0.011373560296575264 0.003943177012564534
1700 -0.0192830821181874 -0.0036954238676764166 -0.0014735215347182115
1699 -0.010152286509094843 -0.007595018739751486 -0.00038304731902815683
3953 0.009571873898216836 0.0012560076896935572 0.0005073328535562769
4335 -0.004802277862490821 0.0006725245445418165 -0.0052651284347451695
969 -0.02929451832754624 0.01012146731221793 0.019436644822294045
3412 0.0009567061251122191 -0.004228570212822873 -0.0008173851899680192
3451 0.005522431957036015 -0.0029286324552771077 7.119795859548979e-05
3911 -0.0020786040838310957 -0.013484901734497012 -0.017933457934338665
2842 -0.002100471455828208 -0.0007016006756821827 -0.0007238522297174571
2844 0.007752220078787313 -0.019672193063206868 0.0010947070803719043
2932 -0.00492329203934076 -0.002394308613476227 0.002753829876107842
2934 0.011708685033921916 -0.003363865132010952 0.017699386542751053
3910 0.004137357002786875 -0.003020966387627804 -0.002795776098048258
505 0.00012461665257997083 -0.0006585021551680148 -0.009490812716306234
4167 0.0040948484993149955 0.009319204870125764 0.003345901478694881
515 -0.0014834976173659382 0.004852637885366099 0.0024607711553479733
2872 0.00526821604760919 -0.002959337821504733 -0.002013575886817783
2933 0.0003796231433857091 0.008983953200743336 -0.005183267851813504
2874 -0.007155903398845309 -0.018596283766350603 -0.011044762241717621
516 -0.017894937520149423 -0.0159518588054378 0.010112589229377663
129 0.0015572057681293536 -0.01953308871207448 -0.024547106148790528
3620 0.0030153008619151467 -0.005661769311618586 -0.016221783639880635
869 -0.0029098567781657976 -0.005388320629893931 0.004860307116272717
3131 -0.003719982305011291 -0.009683389365434 -0.01421530274047262
3130 -0.0025554825454509053 -0.002603953391070956 -0.0002236219400679149
3132 -0.012896227597487002 0.0061268561883408654 -0.002300554948306858
870 0.004850856893747945 0.01719706822188102 -0.00164195690895744
3774 0.005368336097747527 0.006087213115546783 0.003922264690769093
3772 -0.006778543983374418 0.005485169866153676 0.00013261083296908113
3773 -0.016307568716037384 0.0003534389396401911 -0.005787342873691066
4340 -0.016843398625136723 0.03543287083264863 -0.006234541356881482
3538 0.0002592702568713293 -0.003973890278546727 0.002010421294511363
3539 0.003358931315724072 0.0017122541336271056 0.015279003587920718
3540 -0.01782826230091994 0.008339675065128612 -0.01906630164552553
3845 0.006232521048974098 0.009871479202857027 -0.003117226758342134
3844 0.008604243655174235 -0.004272544900507853 -0.002855920112287647
3619 8.281206217766561e-05 -0.0027236727570201366 0.0010071469874406152
2873 -0.018242506262971653 -0.009227818780592138 0.021272208751019726
3621 -0.020530570895883993 0.005027465929080267 0.021491276410400675
504 -0.0034930747712593347 0.01375942475427921 0.0056077136589862955
503 -0.0006702598610971713 -0.0036387129846817043 0.003988725382122406
3401 0.018494137018090464 0.016166672913182446 -0.005162640456181313
4334 -0.001496152615523901 -0.00029957776257972575 -0.009081094176022871
4333 -0.0011345394417469068 0.0021645998007873563 -0.001461646166267869
3952 -0.0018273641913559915 -0.0003984658773833217 0.005755576752574724
2317 0.010524269313699798 0.0029897591665219393 0.0026218955666882627
2319 0.011460654780334407 -0.015174789578048697 0.011665093693585874
3692 -0.01802096103065539 -0.0060328352910995545 -0.01381385150138615
1421 0.003643537349289401 -0.02073354897125631 -0.020209437254521293
4460 0.006743451281084937 -0.0012686387289649564 0.005388590168271352
3846 0.011251377476126813 -0.00974065772647577 -0.004722022061212642
1887 -0.014461723249808886 -0.009476925461854973 0.015715606860556185
1900 -0.0030384983513198197 0.003165394183129379 -0.008251133652963169
1901 -0.005897967058502407 -0.01585798666939993 -0.007202405339367088
1902 -0.005663650680274556 0.0011705243095729023 -0.01703870562611337
4352 -0.0020415617680895667 0.0004047971718957006 0.000247766415903755
4351 0.0022189157876947724 0.00043501714975393554 0.0008375301306611917
4410 0.00783329300789174 -0.019999248140647168 -0.00667447571616164
4233 0.01785034489860775 -0.010275508539145283 -0.013269864117076363
4278 -0.005012393430832007 0.002316895524328378 0.005329932881923595
4353 -0.008097797371322182 -0.00035277918128149817 -0.002515681419724612
3140 -0.021266987624915253 -0.001782565557190296 -0.01626479274594285
3139 0.002196456550892119 -0.0008785818945463612 0.006785136111760659
4276 -0.003730843259464435 -0.0005549410537548297 0.0005909873955018189
4277 -0.010875183912883404 0.0002590990158056396 0.0034838537243998846
4299 0.006281121897604564 -0.010966805224067936 0.004178520565139085
3824 0.009962177830722478 -0.009515449959359231 -0.0009458112987696426
3825 0.011310110944678634 0.010476198058982165 -0.005510569326380684
4206 1.5980235002630453e-05 -0.004441642492598407 0.014006040313794588
4204 -0.0035149846735383307 -0.000859999379117345 -0.00565251882326229
4205 -0.0051937521356024445 0.0007009638531711213 -0.014655852305386614
3857 -0.001092471524023644 -0.011770536852721874 0.012994198954732361
3638 -0.0029607543963125465 -0.005869740683334139 0.008797327632841107
3286 -0.0012466229107674623 0.0028674324547233606 -0.005526886517100092
3856 -2.046337818121897e-05 0.0017440050977267569 -0.00023235286581275863
3637 0.0032672748362013253 0.0008844318615512886 0.00148897284681189
3639 -0.011536492232555685 0.011043397296543717 -0.0064156995682988225
3328 0.0012491105587759989 0.0006884996561615217 0.0005717549937477066
3329 -0.014438885198716656 -0.00026610569713565556 0.006930400902785124
3330 -0.0017941444049210304 -0.01479962047070278 -0.008073072263621145
3858 -0.01306393284457332 -0.0026612530350759275 -0.004670068140532963
3112 -0.0033026744220735252 -0.006565772522603953 -0.0021494159609767366
3743 -0.026462029959516326 -0.022288693059269733 0.00239729227541271
3742 -0.004519278615464134 0.007489508286975146 0.004008755476148195
3744 0.0038817648198829838 -0.009842578862277285 -0.010568471651114816
3141 0.011514265814555495 -0.00028392372810098337 0.01802215326449287
4042 0.003649418683742168 -0.0004849240692615788 -0.0038264453203766414
4044 -0.018440519824385528 -0.008168769071620044 -0.006007366309167449
4043 0.004354305254964181 0.010170968914847986 0.010688478731867984
3511 0.006973514537249936 0.000712070504988673 -0.010473285703294003
3137 0.0022333389626709283 -0.0059713948723082565 -0.0021739899482878865
3136 0.00019560099991447518 -0.0002031533905230443 0.0018851563657719763
3138 0.0003615020128140154 0.003701675369674825 0.006369549191289243
3113 -0.016306781685654956 -0.020860745079872147 -0.007793267494280853
854 -0.004834160472386111 -0.009760873126730914 0.003293102626590745
1869 -0.00149916558432319 -0.014947598042292148 -0.002539550856068486
3651 0.021332294502787272 0.0030622314015699838 -0.005267403435050249
3649 0.0010938052541028802 -0.002855451745330099 0.0017651515430031515
3650 0.00149184677132223 -0.015149437266438507 0.010921892288301063
3396 -0.0009279987290846285 -0.0057022188863694355 0.004847727141173174
3394 -0.0010511957691513778 0.0058278606229155835 0.0014051526060302692
4022 0.004701654365574138 0.0002850159833837697 0.0040247654899459515
4021 0.004278920906259548 -0.003574781076539401 0.006307154456057794
3548 0.012348622390566099 -0.006195690755066393 -0.00515123571408444
3547 -0.0005551142729484073 -0.0025286352434885544 0.00403776357379191
4023 0.005301127758826708 0.017457743059342723 -0.01105234393953774
3377 0.0072340070249741085 0.02065854419582259 -0.008855427672171253
3376 0.004490542041106663 0.005835127653867923 0.0016954221301896451
3378 -0.008168701920081093 0.002005036385355554 0.009747472074727715
2635 0.0024167694050007973 -0.00599409067418157 0.002190728791007442
2636 -0.006006129957190088 0.0016365793820471198 0.0066893476665711256
3660 0.0034751861617395856 0.01769911928416957 0.005429572525657094
3658 -0.004577662383383242 -0.005177847488339783 0.0075439281303463284
3659 0.004269480680695803 0.030107264462766525 0.005876881419728833
4413 0.0141491523873207 0.006785109274398677 0.02596447162817219
4411 0.0011857402195635917 0.001841591348158184 0.0019867382295161566
4249 0.0029707189529452976 -0.0011508306361163554 0.00576828748009378
1207 -0.001704861935985077 -0.001529371440012667 0.0016587525276291443
1206 0.029552077251342533 -0.02250064879161705 0.009473141489686141
1210 -0.013023647976897312 -0.007306311907503422 0.04765332188539456
852 0.00689444369504809 -0.0075143379811102445 -0.00015808804008593646
853 -0.0011451257130868286 0.02850597047684553 -0.011135746075969708
3549 0.002812231517856954 0.0225555340942776 -0.0023532507760395584
3001 -0.0038406923638046233 0.006008280647495467 0.0017506264512389955
4412 0.004800075273764526 -0.005951223798723316 0.0017418823658424299
3031 0.002910688766732964 -0.005346995043943088 0.004176314647503403
2637 0.0005795194314836723 0.011490406658459325 0.008225543363154605
4251 -0.0008608628022192933 0.01666181065678503 0.018173921983916912
1205 0.007381974687654928 -0.003897307160696903 -0.003140768950199305
2720 -0.010341385796332274 -0.0010804375441900436 -0.014539720233332677
1383 0.00025751911599982444 -0.0021958597580056718 0.0056436846268871944
1867 0.0028579432059778493 -0.002936678260895953 0.0012163872386231783
1838 -0.007405161958664303 0.009105193519397776 -0.025327213752326997
3874 0.0047726134656739146 -0.007132242720138288 0.007216748215792505
4118 -0.00020597635420174627 -0.013308481003782303 -0.03276121604082781
1014 0.013602460468720648 0.01826812553204355 0.009042812207421145
3517 0.0063069365631072865 -0.0009320139661317703 -0.004726222336279978
3518 0.00888103800857573 0.003859369055873064 -0.005872374046980417
3590 0.012491998609713638 -0.011367628623790687 -0.0007159586509175169
3285 0.006597202762620975 -0.0029396143248754548 0.0078079627613897775
3582 0.0008193021936640546 0.009091711913997998 0.01133156326549578
3580 -0.001118443440661934 -0.0010240659316962117 0.006220210461426546
3581 0.00874855661917989 -0.03008841933024464 0.0019321365204593697
3256 0.0038959008797143013 0.005073846785778243 -0.008153865303145604
3258 0.0019372854194611088 0.00657996833610979 -0.01152427989190495
3257 -0.005172432986487319 0.005048790386706624 -0.012371307391625336
3634 0.0005023132836613264 0.0022940627774819073 -0.004998887370010358
3635 -0.009508594930461259 0.016821459284996867 -0.007520718986754349
3636 -0.010568548505826923 0.0029244313644753964 0.007260495745871958
2935 -1.1061773735984926e-05 0.003940897973940156 -0.003314129482247419
1016 0.009454249001566361 -0.015005698128500283 -0.0025219071556828706
2937 0.022322864426982097 0.0008190616077659071 -0.008538454156840469
4440 0.015159896623332062 -0.01008072898136621 0.0049783231734738444
4438 -0.0022834286602870305 -0.000340107813307924 -4.217761096247009e-05
4439 -0.0023602370643968657 -0.0012083179201091293 0.007193086124975503
3283 -2.9681646162156665e-05 -0.0046933545692448096 0.0008413379073003834
3284 0.006448690832325634 0.0004499642949570251 0.0017010344462929548
3187 -0.0020078511414155908 0.0028778929565132683 0.0029045636308887564
3188 0.004179626611641096 0.016816169195783454 -0.029832385238214108
921 -0.013360754177784985 0.006631961013681386 -0.004083089517093971
3189 0.0025495194891423816 -0.0011722384414255549 0.048428752953991176
3999 -0.007862233714953874 0.005679198871108781 0.014273633309687579
1015 -0.016847877870390736 0.002242218262263494 0.0028056098447488496
919 -0.016986449595571926 0.005072773122138455 -0.013632182142938543
918 -0.00043522201440131144 -0.003971181647130894 0.0008885796605227502
920 -0.0013493578156572523 0.00015814313844645766 -0.0028361414314806203
926 0.027104132893354914 -0.020876419537863258 -0.007603948682520982
923 0.0020203481877320816 0.0012887307175286921 -0.005176813878272644
925 0.007738188512628006 0.015258344513742283 -0.032049845037179926
922 -0.0041837466529003435 -0.0006269683334530336 -0.0025556817397049607
2924 -0.008587693181311473 -0.009438078750534562 -0.006392687718621908
855 0.02573342381733033 0.00467886080817393 0.002002689232265559
2923 0.0014136537269570466 -0.0014556039943710076 0.0016374646401782105
3505 0.00021683347344040745 0.0017025649842855148 0.004346816629943803
3507 -0.015927909534351265 -0.015228473084085627 0.010725841260841853
3506 -0.005938926403256098 0.015661045205600445 -0.01715894964623048
2956 0.005315966179343115 -0.0006933649415128303 0.004193287859238454
3156 0.013304593624659331 0.0027360093212173927 -0.006305904750020893
3155 0.007326731862935239 0.004574411805451258 0.019801848408735247
3154 9.079257904882342e-05 0.0005760881428110151 -0.0019069317906109304
2505 -0.009088350026537016 0.011626341104917894 0.013095451321890607
3623 -0.011624533386133493 0.018997262569905898 0.001860745096891827
3622 -0.0013758430785676718 -0.0026486624073900214 0.00243662150192259
3624 -0.004698250382868996 0.003770331929929123 0.0018800082843325853
2503 -0.002434974367051376 0.0014595967163042276 0.003958393159390233
3281 0.002214979209670888 -0.012447913348365338 -0.0035349915880811215
3176 -0.007282082548818296 0.0030011302010707745 0.0006366301991158532
3175 -0.0038035605165748186 0.0009283668185069969 0.0008585473125911101
3177 0.015232647075470774 -0.003052649037923187 -0.0019379368210200108
3280 0.00019389353413882705 0.005258818927365896 0.0033195361325924475
3282 -0.003161705887330747 0.004579649975898725 -0.007622139160816732
3903 -0.00593957888393964 0.007663179498202736 -0.012081212460266093
2504 -0.0071329851432866895 0.0039131472395936995 -0.007255386752692168
3902 -0.01226916965740702 0.0011630014720972494 -0.002721369022599636
3055 -0.005797302154500876 0.007548097689732176 0.0026228329623998866
3032 -0.0014831068332587496 0.004852150424758881 -0.005342016915343787
1264 -0.021463279478240657 -0.008412650488909781 -0.00019252063565575306
3959 -0.0032469192798748 -0.014409406129829936 0.0050444899360795195
3033 -0.005615794786120851 0.014528080962718022 -0.014338515013697454
3056 0.01876048288618958 -0.009369946382486638 -0.0062658242526475805
4203 0.007859409501322433 -0.006130827326491309 0.018624610181614543
3901 -0.004965139302845781 0.004450475003663959 -0.00463641623206924
4202 0.0002937166931129527 -0.007032561016440852 0.001982377654197808
4201 0.002252804902568797 -0.0055480703667519895 -0.00475286863674796
4148 -0.027295806796914786 -0.01324075175100221 -0.0018840417016711387
399 0.019134366180378927 0.006615696341761836 -0.0025170738895278974
1394 -0.0008769287305961108 -0.010285998896888596 -0.005517493203964809
858 -0.006718416113887834 0.0025429746195768667 0.0029065196157193217
398 -0.013669212872083605 0.0022733461878619477 -0.0025826738686006183
1842 0.0007120786491148521 0.007225271965779736 0.005415849655146378
3046 0.002642276575073072 0.0013934186730744003 -0.000443932111308781
991 0.01067206362971677 0.003601192535124491 -0.00034047638063404277
3804 0.007514217458002198 -0.018209258279861147 0.00910766405461632
3802 -0.004531265258281913 0.0016966178888667674 0.0020227546224893703
3803 0.010213165195682949 -0.012376900338465 0.013055167433910941
3932 0.008549855331800709 -0.002281722159112524 0.0007391159936588464
3589 -0.002948705307001063 0.003591825669760399 -0.009559734451526155
1013 -0.0028790576846487795 -0.00039429574034758014 -0.00014760924296236208
3591 0.008848336636507881 0.0018738532033645602 -0.023689056512667284
1012 -0.0033664863780830724 -0.003141983728069269 0.003339825643749529
1017 0.0019544059414875357 0.0027349416101436733 -0.002344164828233071
1018 0.013889692920420306 -0.005348335435678158 0.013243579888332201
3057 -0.029434202348348402 -0.0027805581172915417 -0.011740452106657754
3690 0.010625779629488994 -0.004630614434151422 0.010649909572537985
3689 0.004398016526683205 0.012727445947073925 -0.0027180200417073574
3688 0.004040025122298883 0.005499512821095632 -0.0010592661075489967
3931 -0.0006217741707160241 -0.0013261489398920716 -0.004064656561710982
4136 0.0017831030621307592 0.024852612457143024 -0.001986574269423176
4135 -0.0019726577388800674 0.008125260527261159 -0.001832740941383974
4272 -0.0046873843890500606 -0.008721598441339901 0.003779734677953934
3726 -0.022959102338833342 -0.008447329323900382 -0.003876214039855566
3724 0.002161296978372532 -0.00382736302652059 -0.0006915234450555232
4137 -0.00979017963600719 0.006242900837919955 -0.029594027058047385
4270 0.0029198934048028508 -0.0024819300605777683 -9.836678476396024e-06
3725 0.009098238992198927 0.00913737328760332 -0.021175019112134284
1020 -0.019362570310987832 0.022406657202744824 -0.0078131172895807
4330 0.005367623893335442 -0.004460233036851065 0.00012796744192015034
4331 -0.01818142186596077 -0.016945988955296032 0.014594637496446888
1019 -0.0076072059316271996 0.0050605327475176905 -0.004324957086037545
4433 0.0014732335800273762 -0.0021735344229709256 -0.017410790217814102
4432 0.00034616719858952024 -0.0025856197751185942 -0.0016682939317073956
1006 -0.016011298518082105 -0.0036386357976536687 0.01133527898831583
1007 -0.0029932546287862074 -0.005324318752834416 0.002599163461313649
4434 0.01276084711128544 -0.00443511414286996 0.0034599647118718382
917 -0.0012248572311930627 -3.255014481078649e-06 0.006814045025176795
916 -0.009017550782998127 -0.008800114986492295 0.004998591551148036
1008 -0.002782822997378873 0.0036512988182800573 0.0014251227440770014
1010 -0.00015332943262307024 0.00047628387511227093 0.007143976562646751
4332 -0.007109890525627924 -0.003795773562108236 -0.020513049595800407
1009 0.0045109048108131775 0.007861249923686506 0.0010253622251680178
1011 -0.00038139567996240895 -0.0293088523192551 -0.004939945668214877
927 -0.00453007083600377 -0.006427489807768724 -0.002621087271195525
928 -0.007179494131965986 -0.012946723881121737 0.01497219513966415
929 -0.001477047989466375 -0.007476894322882433 0.0013387830781930415
930 -0.014819422475079306 0.01412703471280974 0.0032990508010355937
4219 -0.0017880020127770718 0.0058601475640148335 0.004043112432110912
4381 -0.0007575933559057394 0.002331656751042841 -0.0012662070922094834
2925 -0.003744610567098944 -0.0005067083477814943 -0.022421575487762815
4255 0.005955217093112365 0.0019647230128671898 0.0008948124325595172
4256 0.0004016442277298006 0.01418753662324965 -0.00971868110035136
4257 -0.018798429551067263 -0.02746745405951987 -0.02136285936207945
4382 -0.0055457619061957085 0.0036714959056854297 -0.002005183167818696
4149 -0.029118550594621886 0.016355795662502413 -0.006422771126899211
4147 0.007260943587745719 -0.001215050716889061 -0.0011379017831393832
4453 -0.0024406854381697446 -0.0073648710257109016 0.0048607375598367615
4455 -0.0037770411611521867 -0.003476351431959385 0.005547701842148294
1349 -0.004754356485906607 -0.00016611669306635708 -0.001170870358949877
1347 0.001141267463452003 -0.011908302900956732 0.002612633826139588
1348 -0.0027343375231384855 0.012822081785728879 -0.011948341691423947
1342 0.001173339251599768 -0.0007831984303028383 -0.0006942286455103438
1345 0.004097028262959074 0.0008966491545438403 -0.003504210616009644
4240 0.0032393280838053833 0.0052495747309165095 0.0014586132088091073
4242 0.004199491901417674 0.011467248054636954 -0.015214250632073873
4241 -0.0004129456566496217 0.01073711452784659 0.004464834226280243
1343 -0.003046513394073274 0.004582851941387066 0.0005647539180821009
4317 0.009889846062843094 0.021077883846352164 0.02223835084322084
4316 -0.004037671366303113 -0.024129277562569208 -0.01955585816141791
4315 0.002731311721655973 -0.002528812141909888 0.0020721260136513575
1747 0.005757189583217153 -0.0005258442802429527 -0.003012624626348592
1749 -0.005568621530043848 -0.004267265239694691 0.005528311231361948
1748 0.0038161744119049284 -0.0012111296746460261 -0.005368949911031173
1346 -0.0005585072254470864 0.01846237008324129 -0.005559903441512409
3450 0.0007391521455140108 0.005266171995478377 0.004206280674901504
3448 -0.0017472708775576207 -0.004687958276755021 0.0036601166509241515
3449 -0.0019074386651689117 -0.03136124964813991 -0.017828899030697776
4161 -0.008166835870132083 -0.020036808515533043 -0.0027142427274153987
2639 -0.036141777869347066 0.01884042105007371 -0.008793126176044557
2638 0.00041241137191063934 -0.0010190601507625375 0.001598002563180082
2640 0.011181816458360479 0.032263243879342436 -0.01327901788683268
4454 -0.003434278484807913 -0.0049647477297335586 0.003548267897223103
3736 -0.00378634203494892 0.008633757694351579 0.0042368240526690585
1337 -0.003489094141015442 -0.010447928416123135 -0.0009677825350830207
401 -0.006289340911029405 0.0008564864161085662 0.01920813267295621
3738 -0.0035761381819593694 0.012098127131548533 -0.003793770187281312
1038 -0.004275092259592748 0.003010490663809777 0.002134170537828716
1037 0.0019009582964826383 0.007715155444595209 0.0006174704689823368
1602 -0.0027517055664560927 0.0014648128464782866 -0.001793710228147925
1366 0.011805457410345669 -0.005316992414577149 0.015186612120085987
3047 0.013624414533316262 -0.003362732647505987 0.005779162409699671
3198 0.0003594333718637823 0.010613304326968602 -0.015683195551069774
3196 0.0048725153691429185 -0.0012707656295900017 -0.011790175943301926
1840 0.012683681114407229 -0.0019828763735141664 0.007191041536208262
4363 -8.23919207899009e-05 -0.0006609768046475517 -0.0035556070127512407
4364 0.015079289842267654 -0.006082087304473762 -0.016349168432226432
3764 -0.015195413081632374 -0.022086775501877508 -0.008693294996780128
3763 0.008260044395641519 -1.618133540071869e-05 0.0050870104705250585
519 -0.007879804026113078 0.004623008373628649 -0.01883720399945556
3765 0.002401837230056946 0.009271928979560945 0.017486485590829427
1039 0.025519754778074562 0.0017542262029291572 -0.01171571012914483
1036 0.006511679093812141 -0.018652208893508996 0.0018484743824064634
2739 -0.005521218818567686 0.009964171166257975 -0.023242291022362912
4379 -0.0076303286523571115 -0.007208088170264732 -0.009805863688772688
1600 0.003020710740415817 0.00046092274302640614 -0.0006087039868623584
4383 -0.00043363657674115613 0.0014475495758165175 -0.007667029209896781
3933 -0.004933378361539418 3.6910390207965004e-05 -0.00527474851728274
3563 -0.028284957994930793 0.020667710949269075 0.004410844466619568
3562 0.0010204681634020114 0.0074959061180347245 0.0017090847928846725
895 0.006391039627254289 0.026657025380673643 -0.002230233745348787
4427 -0.010048990479082146 -0.001342818897153746 0.019388527123203228
4426 -0.008395015293068783 -0.00033386554387192225 0.004897605320940691
3543 -0.0009348901005099078 -0.006133034823395418 0.024164747885231833
1758 0.015672620474575835 -0.0004853293128774647 -4.2982946760302605e-05
4428 -0.04236325606487977 -0.002988655709051425 0.01443471086969981
3541 0.004846367997455251 -0.00014927929666373215 -0.0012329251998186217
3542 -0.024591419132121303 -0.028069303265560792 0.008111391796519183
3345 -0.025638387245669164 0.0025577458409993137 0.0068853794068535375
893 -0.013151745380712818 0.0025736320660086714 0.0001117343851717954
892 -0.0059357940247846104 0.003653316634256197 -0.0017684933079528916
3737 0.00027937918300333683 0.005617589840726681 -0.0055203487575264274
3259 0.008469431420887262 0.006822766629961745 0.0037952185326942107
3260 0.01337837213494658 -0.0025334493394173234 0.00010854483859004411
3261 0.008684692207399562 0.005532022470078416 0.0010870353723991632
3343 0.003561072284690084 0.009071274723130433 0.0001876371366944769
3344 0.006321142793320915 0.015736497197793894 -0.005797365957540123
881 -0.0163846315888446 -0.008614745083111197 0.0010054495740298428
878 -0.000422265406810665 -0.0025748173278549048 -0.0015911991039155614
880 -0.026430872405173004 -0.015809284264070654 -0.013521374959508819
879 0.013066333556545328 -0.007631408005652106 0.018985350202770104
890 0.0049633808677936675 0.004713280356182618 0.006473170287679067
891 -0.023271895910340557 -0.004402232072979293 -0.019816481095526504
896 -0.00486781057903218 0.00180064866709645 0.011217930395908356
894 -0.009709998670670156 -0.0006922821862824626 -0.002795035929484742
261 -0.007123925686703404 -0.004625595876194963 0.0011796784138122752
269 -0.0038651398593486075 -0.0013817311370334286 -0.0013068642892000743
1344 -0.011620434884218144 0.007238522930560797 -0.016641442551592986
1340 0.002262822783066304 0.0025518296990501787 0.0009183702328686752
1338 0.0011759547915451362 0.008847627112044837 -0.005446620794330846
1339 0.0014205172906056154 -0.017195967426851214 0.01223425759142829
1341 0.007836957658776405 -0.0075329190858846005 0.022155904331001758
1041 -0.009998677141170835 -0.005565390819710162 0.007920547934141669
974 0.0015072514311666994 0.0010408344360240927 -0.003809250297387532
1040 -0.002390419780280847 -0.003959607941509768 0.0010480208869631763
1042 -0.003727105159149328 -0.004894403784571043 -0.002170592278217894
1043 -0.0018218633205943175 0.010540321373974215 0.003926683964654609
3883 -0.0004857574510384678 -0.0011184243605347772 0.003847371043096197
4094 0.007423037051395918 -0.014712777141478619 -0.013583719116768702
256 -0.010175235354051258 -0.016206750271170824 0.005623365947728505
262 -0.0022742426083463 -0.004423238860987376 -0.0008966296754055262
257 -0.0022105405540178698 0.002595703850644932 0.00020025829632053387
3968 0.02216470131690339 0.011430793780938494 0.02396797060657824
1044 0.002053979743917884 0.003614072289549152 -0.00779621516125941
259 0.006994151496919481 -0.0162970011664473 0.010284114416947727
258 0.004596210435383155 0.0026916508658198905 0.007838883157522116
260 0.00012612761299916436 0.006620897390007896 0.005846830186040779
1045 0.008267905084952582 0.02077982045846464 0.00901817177493533
4054 -0.007020116064770809 -0.0018366096549203158 0.0014710209290065461
4055 -0.0034781177982399587 0.011280879308651834 0.010961003441690943
500 -0.0017561632097353138 0.005292839973445369 0.004131487003054174
4056 -0.01899577090981922 0.011588589407179505 0.032473471174046836
4263 0.0022864937601982838 -0.011221344543669758 -0.0043134508448378845
4093 -0.0007385233998852972 0.0037512812696878666 -0.002990011820238288
1046 0.02473680258283129 -0.013610316423716674 0.012164835747730671
498 0.0070702608755441885 0.006607512357537567 -0.003147869775534891
499 0.01434074804276697 0.029759788644906138 0.0057837453495652915
496 0.010495744934512085 -0.002426433133803127 0.009895973336250958
497 0.0006251733521726963 0.006566909357175099 0.0011781839768016675
3071 0.01982835329265649 -0.010038656257915385 0.012025310504182058
4287 0.006870390007967975 -0.011782591772627643 0.017458826035797053
4127 -0.004931140688708878 -0.028959837259247553 -0.0069042097612813155
502 -0.004905756754927441 0.0023246316232323353 0.005080692240605325
509 -0.006066489931179276 -0.005057920241487658 0.0020979757857083523
510 0.037711359797233356 -0.004844169569976008 -0.012471076787772114
3232 -0.009516159454652538 -0.001951869521952069 0.005568423651710758
847 -0.0050338594749541575 0.007802066963759387 0.007943005176723068
3233 0.025302282134258582 -0.0017388347580936272 0.005425728058240805
973 -0.01631563962591228 -4.1585010911842375e-05 0.0029274826588624645
3605 -0.0007798708197817233 -0.00377996585247122 -0.0019705308940616167
3876 0.019010036682556138 -0.011029666943789295 0.0013898088566217746
4020 0.01570706574616046 -0.006669675472131249 -0.0035374935711476384
900 0.005789404511501419 0.005553591156915417 0.002684469979799901
886 -0.006336242545929622 -0.009689459426799623 0.03039339914542967
4494 0.013776409244604467 0.0029209001589714572 0.014320347596660184
876 -0.005887519567804416 -0.014731629468166956 0.0015038648456733516
897 -0.004030004922581109 -0.0065745547396893495 -0.002133059326635983
889 0.0013402871478679721 0.0018385579695224053 -0.008727136368994835
1049 -0.0018229045433711978 -0.011397995093346372 0.0005765186976230017
899 -0.002475900823072802 -0.004884991380791909 -0.0013812718343565805
887 -0.004719663279286841 0.002812636545259872 -0.0037455405935882566
888 0.0060638930502222785 -0.0005080434037997183 -0.006421744557092744
3777 0.003235165226514493 -0.001187605183512613 -0.0060606776887020914
3241 -0.004674706182847526 0.0004789324211728829 -0.0011085230137290352
3242 0.0019283088505941228 0.024352143513241917 -0.0036579548025989475
3776 -0.009084445684310922 0.001774341365118377 0.00915150061219313
1050 0.009637640834369132 -0.012681819093875002 -0.008990838936819021
1047 0.003670062070084213 0.00280172631158429 -0.0018129630369351525
1048 -0.0026985204861927747 0.008070464363912611 -6.269979310644645e-05
3775 0.0005055306554832814 0.0057863404212803995 0.0023090379894338616
3534 -0.019811791340086073 0.01032563728005682 -0.02033175082284939
3532 0.006771761689925044 0.0033022600372973406 -0.004485736050663641
3533 -0.007206312019664573 -0.004076393435159176 0.005623923581116588
4285 0.0040382348776973175 -0.001965753563949338 0.0002543156564517291
4286 -0.001224038429069352 0.015821255911474347 -0.0036523001331366864
3110 0.0029035644328903243 0.013167107026840607 -0.008557984836783867
3109 -0.0024970226771902507 -0.0016311315119878732 -4.928909022997691e-06
3111 -0.02886727174254096 0.0049492245327428346 0.0016952681208604974
3297 0.0059912459668349525 -0.0073344000053354895 -0.006278443207736942
3243 -0.007264392477088351 -0.009676332324669624 -0.0033467835693317565
1299 -0.002124445542510318 -0.015528024686575985 -0.0029781991389051746
1300 0.006940712433188262 -0.0035437658926592923 0.0198503650288877
1435 -0.019690746045335036 0.016017461117588783 -0.020248914182291744
1302 0.002340090661235254 0.007665214485802341 0.004316241486549345
1297 0.003793111588670564 -0.0035454546618356566 0.0008033975412840501
1301 0.0011871949598410985 0.0047738463105782255 -0.006530147533473666
1298 0.00025560939916473887 0.0007922197623952409 0.007077179332595248
1479 0.000109887470679187 -0.005494060923602204 0.003350691697595395
1480 0.008797974850566428 0.0033808428084261782 0.0059599752423608945
3126 0.015423857525679487 0.008752241664611853 0.004652027862850766
1303 -0.009641437177480972 0.027673787647548208 0.008074881035749187
3372 -0.0021847183136380374 0.0017932353988021515 -9.854120051534863e-05
3370 0.0039286130242148455 -0.0007243709160221352 0.002700763380076914
1305 -0.004481670651438026 0.006913499235915549 0.011050943571672238
1304 0.004280583507439475 0.0030814300017350817 -0.0026354108997892313
898 0.002116659592248239 -0.008939842275689724 -0.00029438075888218746
1438 0.008928500780314519 0.00266939914682084 -0.016952856389577595
1434 -0.00925259194026498 -0.0003733504117689288 0.013690478678149657
1433 0.00533833212461277 -0.0021680682431393095 0.00018947230077384514
1436 0.022365958405983166 0.0024837653689858854 0.01933389941176815
1427 0.0009135928809602215 0.004833375904603284 0.002649986614310673
1439 0.0006731400569433926 0.0035601065918012082 0.005973646155380949
1437 -0.003116606574781063 0.0020467091285409173 -0.003988225951304152
1432 -0.0034582581364163995 -0.008559922853132418 0.00035579309248184274
1481 0.012838263097588207 0.001763395870646159 0.009096648983137728
1478 0.0011418622234680602 -0.006560967537835518 -0.007008234576382139
1477 -0.001913842765805078 0.0017858134235268022 0.0013786212491201312
1483 0.017916208083186263 0.013647331465734894 -0.013558334990760711
1426 -0.010839739599413147 -0.003545464217448848 -0.00829135299255113
1428 -0.006719562364994074 0.005863785674758655 -0.009231778162324181
1429 -0.0075534158218209324 0.0037146952702653687 -0.01797836256694486
1430 -0.005241858270294048 0.004892825798546486 -0.0038702434789438206
1431 0.0019100224195031613 0.00963177096095051 0.003385625183189452
1485 0.014977609330872598 0.0001605202252073877 0.00037009204970083685
1484 -0.0020835103389093374 -0.0023975621000101957 -7.602631654154597e-05
1482 0.003195694635820865 -1.82975604608192e-05 0.0004688608579053874
1440 -0.027177567896078007 -0.017693082010401002 0.015070980034820195
506 0.005008534682705911 0.004300185701397551 -0.02272423764152727
3693 -0.003620560840643436 0.006322069173296688 0.013968122692339057
3691 -0.003049921282815807 0.00492678602919719 0.002353974544169557
3400 -0.000775681811972526 0.004466100163540909 -0.0017604444677595935
3402 0.002695971364202682 -0.00667085126985036 0.017798383084817817
4459 0.005473457198792614 0.0003119497585147479 0.0016105951107390167
3461 0.01706208486135003 -0.005258075056309564 -0.001474009358640952
1208 0.0008511803561355186 -0.000675606593352578 -0.0026756955569394473
1211 0.0014212438054359551 -0.004298037429947838 0.003998670329159454
1209 0.008399219147265337 0.030085631807111265 0.003913754491143723
4349 -0.0012756517481133424 0.005149942696108591 0.0015427554357720647
857 4.6134764528917377e-05 0.0016833717727235261 0.003434756282328251
856 0.0009386916695481842 0.0017045996817140982 -0.015888325914687588
4218 0.019889004756821736 0.0054644256928512306 -0.007970584695226185
4216 0.003713860512967987 0.0011428335920091518 0.000928082802398019
4217 -0.021061037948636306 0.022682595455435592 -0.004217675953904657
508 0.003382850888763853 0.021870691730639748 -0.009337619825893621
507 -0.0036290752749212132 -0.004469738485966111 0.004114943822937308
4261 -0.0028788167686746684 -0.008892995614655267 0.0015487360008801935
1444 0.02052188826870133 -0.013789004715998794 -0.010411080298147437
2464 0.000992265587802612 -0.006295050741261083 0.005995479775080111
2466 -0.015407507993750524 -0.008563496249901456 0.004386219046164936
2465 0.0007192637743801866 -0.007200148256960139 0.00533020173148488
4355 0.014679585597727482 -0.025438665571025306 0.007436353805842357
4354 -0.0003432302532161654 -0.008936873633887163 -0.0013169080861531617
4356 0.012384564677816439 0.0022843172282674402 -0.011259958741308739
4250 0.013709844701528657 -0.007066838243002795 -0.027650887508278602
514 0.025585410798223275 0.013318837283509712 -0.021940596877687568
1449 -0.025938070608619846 0.02178423777167666 -0.011037112616878043
3460 0.01025183255581378 0.006023230619236172 0.0018869282730575143
1443 -0.00771502017284739 0.00156742980100292 -0.002856369514493485
3086 0.02031493424739347 0.002541349742034531 -0.008924044726350262
1445 -0.004792961222089664 -0.0007501695645194094 -0.0013348294385653603
3958 -0.004312841350378132 -0.003786068365193953 0.00024052753211389655
1446 -0.00869732913734366 0.01530793476690087 0.01704404426572695
3462 0.004412372151343913 0.004239924841486513 0.008236057903581716
3555 0.0191296264245833 0.014842870470546879 -0.010788307263842233
3553 -0.002735469626679431 -0.0012293890924718936 -0.0017479331474926705
4348 -0.004032800254927201 0.005006473841136923 0.0012096259536148277
4126 0.000485779006979736 -0.007495666120629789 -0.0008252702482891501
4128 0.03016811689650439 0.011725808650408832 0.000589903262257858
4090 -0.004493076077434605 -0.009032293372416341 -0.0022974428408100225
3554 -0.014255728375824905 0.006896388735841186 0.011748797489613359
3351 0.010177311900559913 -0.009356777873287718 -0.00439410619089656
3997 0.0006839564278646435 0.002575348165285099 -0.005018414676516199
3295 0.0013700669600769924 -0.0008598774941710498 0.003407104618517404
3296 4.359071661927508e-05 -0.0027849074365402095 0.008024292849378159
1296 -0.0004950570986091657 -0.008233031332330599 -0.010837515467332932
4401 -0.001845348276598314 -0.014490744577203452 -0.005860286491678395
3125 -0.01493016195018355 0.0011769667404614762 -0.0028679629029915287
3349 -0.0007907311151748587 0.0031915652254543136 -0.003793360922286155
4350 -0.004563582413120112 0.0014815752386640058 0.0015315345431860523
4066 0.005429148479749012 0.001874149378335274 -0.006654416921619163
4067 -0.022981527024130977 0.008512317611918762 -0.007600728586397942
3124 -0.004155981027454457 0.0062644252388974545 -0.0029795434911126135
4399 0.0033788478127460674 -0.006531311469902979 0.005001858177284206
3428 -0.0035782890275369494 0.01268246398181153 -0.018211958567029698
3350 0.007931021311202071 0.004972441674720144 0.007472562536749181
4400 0.011573940410105931 -0.017602834117016467 0.011420207966431456
3886 -0.0010717571774889378 -0.004206789288452436 0.005679992226278307
3427 0.002186395816484369 0.005426193639746714 -0.005550889695692344
3429 0.006697376913868264 -0.0010416987287159855 0.007474661507331235
4068 -0.0009855294712605603 -0.020057535070487305 -0.01086473751606541
4386 0.009825889228336812 -0.0037251023572699407 0.01726599419979173
2988 -0.0005555830144714036 0.01568162698706826 0.00689133623409277
2986 0.0006135123391610463 -0.0037875865407358085 -0.0030499220601056093
4385 -0.03525164426636794 0.0271628910290928 0.006451288618221607
4384 -6.482453056365146e-05 0.001846369625534838 -0.0034107454074248636
2987 -0.0018727850166309465 0.019967463055345823 0.009888826449315297
3887 0.010397112303545909 0.0018459280203989505 0.022554623017106784
3888 0.003558504885503937 0.003596223614072192 -0.007750427158222457
3998 0.01811235536213579 -0.013187056272672481 -0.0005050558268713595
4091 -0.0031065433815254634 0.00915284134196779 0.0038195891943802944
3964 0.0018706117547904473 -0.0014699659064390668 -0.0004908433775760241
3965 0.0016197887688344295 -0.003012735940952991 0.004520481227589545
1295 0.0020037648774525072 -0.005831267286320966 -0.0011218919448352828
3966 0.0004311733033450961 -0.0059831338986522 0.008214337089496091
1476 0.0043527159512426255 -0.006166039448078353 -0.019239423930615902
1474 0.0024185625467093804 0.02469540044041592 -0.00035110424371148765
1475 0.004220484937078111 -0.002325091667585228 0.002945306601106632
1471 -0.017281604280891556 -0.0132196292543889 -0.013199260612306585
1472 -0.0010678618501294452 0.006885611002477954 -0.0011531567586110754
1473 0.003569184026610712 -0.0004202918205102008 0.008394239213720314
3432 0.0010154262693091098 0.023945306026664573 -0.001520131225479057
3447 0.013500398389148918 0.0036629602933628525 -0.0078168625675899
4036 0.003015151252657955 -0.00019431316500626716 0.00027528878286108303
3262 0.002510991358775321 -0.002120595019471981 0.0051329059453057435
964 0.010349759284466417 0.01404114086391872 0.0150393163904774
3833 -0.02206455212702964 -0.0098348716317704 -0.007195417057248106
3832 -0.001658600235194313 -0.0016370993923888327 0.0007519043912518303
2949 0.0034411921760776503 0.005873578102622199 -0.00662866473469443
220 -0.0002438048563280929 0.0036895755829709277 0.009020449254131533
1204 0.01881090038581086 -0.002627216536611116 0.0013854740486802812
223 0.013125551292581103 -0.0034636989832977105 0.0006310868910702953
1203 -0.003509550481508988 0.006428971557140992 -0.005644518640499806
1201 -0.012847437752037538 -0.006709509489387404 0.00193151904815814
1202 0.0007114159759520151 -0.0002459767699966064 -0.0004936672287220292
1214 0.00881003338255023 0.0011348488005985219 0.0035544576518295604
585 0.017100646517010064 0.039809251752235694 0.01806939114036301
4238 0.0015612376213066754 0.010439418153661718 0.005485933124032717
1212 -0.0011016330871679856 -0.0012060507304480835 0.012492754870208341
4416 -0.0016783392447504467 -0.003483956857970241 -0.0023791600426855894
4237 0.008422278993702216 -0.0020114005730183667 0.004665619390496622
4414 0.0013382793259418277 -0.0037721610663381993 0.002933698872840209
4415 -0.01897517266970931 0.019093677694194358 0.01722372527726124
3203 0.011010704763381323 -0.007292755786287162 0.01320338050700036
222 -0.0006168845250243121 0.0003157910816138638 0.0015001132916960297
1051 0.01264189993482845 0.02246542650299785 -0.009337364216706712
1052 -0.006134340183025736 -0.005132278875743907 -0.00566395380031358
1053 0.0016539336883735153 0.001519373786908854 0.000910142591606053
3202 -0.0003714027961680097 0.003374683813338629 0.0037345181035961426
218 -0.005124070795377575 -0.0070793381172705476 -0.006042371076250131
1063 0.00361913023978648 -0.011516919223548501 0.01821415018577767
1062 0.0038787915922304894 -4.488883680527673e-05 7.689205839886527e-05
1064 0.008642267302090034 0.0009624604967403113 -0.0024939534071060513
1065 -0.004340984191724246 0.0010252838602878382 0.006036978959409762
219 0.024797294112990774 -0.0012055554490444619 0.014005573703674144
3834 0.009014395053097021 -0.0012949427590242474 0.0016239864779203405
1057 0.0011795364754525034 0.002114078409873251 0.0035301371298628393
221 -0.007678341588563404 -0.002574731531450776 0.01089425152066828
217 0.0022457497949875164 -0.003989578465455764 -0.000793015657264233
4037 -0.00020163051230020682 0.0014015858346221367 -0.007532268386929278
867 -0.0005184657157375548 0.00024011523628554324 -0.0029627839322884236
2721 0.02210870808388758 -0.011433461914246674 -0.000608027764775682
128 0.004359895391747004 0.0063458117395389 -0.00817386904310655
3445 -0.0016084998336120683 0.0004522886033137991 0.0022560715790883685
3446 -0.005505243336359574 0.01794698895095484 0.011590147742982237
2936 -0.005090249687523748 0.005136607694036505 -0.002424760735492924
1215 -0.03154404111218685 0.019949336975713564 0.007608990057646762
1213 -0.03803994179939938 -0.012357062475460713 0.0015896091250232611
1054 0.0022972407744467423 0.01773142531060748 -0.02073278968807544
4158 -0.017830487712929388 -0.005772092982872425 -0.015235278465089305
3269 -0.0050534811422382545 0.00508928632558831 0.007751221298006918
1060 -0.01607422911253308 -0.026565136673091887 0.023374624642523673
1055 -0.0018392434975380073 0.004127187018224856 -0.0015263923178102277
1058 -0.009158036950075176 -0.007170588250415405 -0.004514576195879479
1056 -0.008281619580549505 0.025826801611763657 0.023525724886506085
3270 0.00374390192559874 0.004650124143619808 0.0001250812893214048
3268 0.0026517018138730803 0.006761614665793539 0.006142455749572769
3118 -0.0015046185973108565 0.005141342376120842 0.00024164605150241156
3119 -0.00021153062322849984 0.008282406524039464 -5.311817651109699e-05
4156 -0.009486634889835822 -0.007504063176063121 -0.008258220245098901
4157 0.0009731884871923651 -0.012623668515938411 -0.011359341086378838
3120 -0.0023125102116725964 -0.0025242549408239817 0.0003271152056163112
3662 -7.471861501741825e-06 0.014317374815557907 -0.003438584125156712
3663 0.00918191159598853 -0.008990097920189878 -0.007155617370184933
3661 0.0008238569990899443 -0.003296767499601102 -0.005517884377553185
1132 0.0015867837378075562 -0.003909059153293542 -0.0005648561812891406
1112 0.0024747444779405926 -0.005338002770810104 -0.007341218550582821
1137 -0.0016905237884232989 0.0023783886364865856 -0.006081152673934341
1139 -8.82116353919357e-05 0.0017028367328765456 0.003790159634884141
1124 0.0002843745363115201 0.0005915609063452247 -0.0022074398557000597
1061 -0.009183810522536499 -0.0013597821613215147 -0.0034624087744354725
1136 -0.012232385213467407 0.0025765286594955574 0.0033634081543661917
1127 -0.004493028503851648 -0.00225364743401388 0.0012853058215954029
1128 0.0006898505253317485 -0.00306835227383984 -0.0005641827772194601
1125 -0.002736972966217518 0.003565187702746343 -0.006446621729170041
4050 0.020612484850470698 -0.017516082992976568 -0.01303450073588631
1059 -0.00012419351967446466 -0.002527719556178601 0.002567408725649184
4153 -0.006745568953047091 0.003944404972357744 0.0066565308458611605
4155 -0.00426491304054389 0.013233858115153792 0.014737343772006996
4154 -0.007983802537740014 0.008916894442764972 0.022685417677508486
1140 -0.016145295844281614 0.024139624806469216 -0.034242124269263804
1113 0.0010286684019296772 -0.012129808353975036 0.005577456922768534
1111 0.010096615074834576 0.009603773026153015 -0.007361693977862021
1114 0.008805645888655053 0.009106432270371112 0.01634728762286887
3029 -0.013321868989174252 0.0008186465684916173 0.003463288551885851
3028 0.004670790428993552 -0.0014090264455420421 0.0016871294394707008
3030 0.010936717829889465 0.01392309106917967 -0.0030188291052715734
1138 -0.02067638197877158 -0.03090417635386236 -0.0034524004332321385
1185 0.013388672299642974 -0.007862397425469576 -0.019070499849339607
1183 0.008402232785958514 -0.005132490660971445 -0.0056323898581175135
1282 0.005391160146901703 0.0022679464060028154 0.002761416683504643
1279 -0.010336804493877326 0.009513108970332088 0.0009954283414426866
1278 -0.012476062384170589 -0.0031544811079569275 0.0036140283913043817
1281 -0.0007044672114756001 0.00829420484569815 0.010970582079789635
1280 -0.0012984318111114483 0.0016976901693185296 0.006843183495328371
1285 -0.008745998054987833 0.005872918666051402 -0.012267485847648033
1283 0.0017753745966812996 -0.0010063544588297137 -0.0046759536977422295
1286 0.018317452467207958 -0.0019448841329337517 -0.02572011116989367
1284 0.016200661323544842 -0.019397457292134754 -0.00361207234810542
1130 0.0030381659485447885 -0.0026531441449878165 -0.0036120887822769345
1131 0.013015684610115338 -0.010033075144256207 -0.006947394557697285
1133 -0.0019056509298978508 0.00248908109897772 0.004048975861327075
1277 -0.004096213410624191 -0.002178008825075439 0.01002741641879399
1290 -0.016686910195436288 0.017621255175516756 0.008147888273818826
1289 0.0003130395356190204 -0.006123905290791794 -0.0008335247903760449
1288 -0.0023007681416604637 -0.0023985370258447366 0.031536448945900346
1287 0.001503737720207833 -0.0034402617303772197 -0.001375214840708173
1276 -0.007825523397764714 -0.027570814448499213 0.0002336043663671194
924 0.0008548867948515925 0.008994137317646563 0.02148407398635535
1135 -0.010692211858631818 0.006408707707227788 -0.02222975438657981
4329 -6.12077531561098e-05 -0.003976794830988681 0.002853411638250937
4221 -0.011081078186654554 0.025607405972483465 0.003060196500888607
216 0.002659064675740013 -0.019196614360078024 0.021027126570498624
3842 0.014570708793438249 0.00610413594692534 0.007963692747204633
3875 0.0183119738717012 -0.007254201860229182 0.004867300835953372
225 0.0025034135496632822 0.027773471626688508 0.026620434625907134
224 -0.003526636511312883 0.007652654349557651 -0.0037126046439476933
2947 0.003918678353053838 0.0013216737109702991 0.0014356018010015347
2958 -0.0006781455518997015 0.01528593667871113 0.00015994118318611158
3843 0.010353739974399666 0.015299650853470013 -0.006285306399365225
3841 0.0020159043371980505 0.0018078727560039577 -0.001101518566869736
403 8.918093476534347e-05 -0.02849108110134677 0.00782384350102979
215 -0.004309573377759823 -0.003315372555422511 -0.0024222813059523595
2948 -0.01618503805153134 -0.0024061398147354404 -0.00499078682613272
2957 0.016385970469032462 -0.015247234864621649 -0.0031386419894536693
2113 -0.0013740670469597962 -0.00833339952075613 0.006384879753356847
2115 0.006559315262617739 -0.01588474705156874 0.008322320431515711
2114 -0.004505210387578768 -0.00020581972352397455 0.00756158372325971
4007 -0.003801941694735728 0.021224856338882752 0.006689309947608268
3782 -0.017341706599421886 0.008495523165933362 0.0077475945654354676
3781 -0.0014785387407466168 0.0035022756134030237 -0.0006861887884791263
3783 -0.0171518217334763 0.005973372195742359 0.004550270095030006
4465 0.0028480022003495135 0.0050459608174455075 0.000386707413218166
211 -0.0036426715761696234 -0.009583623396270863 -0.019474026622140782
212 -0.011138542253280034 0.0006195397963672943 -0.0012820602371109641
4104 -0.002397509343194319 0.0013717613891323331 -0.008601969519007895
4103 -0.000590327125637224 -0.0023044458556954984 0.00405510774489692
4281 0.014599268506413899 0.008440594695031178 0.01043214369101126
4102 -0.002635953837450481 -0.004979553032492706 -0.008350216808876165
4466 0.007562602068461845 0.008838181369972024 -0.02730402420934616
1229 0.0025848081115211747 -0.003326093309154201 -0.006549799615039409
4467 -0.006958346425985242 0.014563870372656423 -0.0037128752899787073
213 -0.0022392520640676823 -0.004750294386647624 -0.0019833930998423882
3492 -0.026143783225024673 -0.00044924091859140525 0.00897777414057935
3490 -0.0016492001890948233 -0.0016680048946597422 -0.0021496546586331038
2716 0.0033256926626197177 -0.005923475568535765 0.001156593872133586
2718 -0.003849321035051677 0.0030291350758858255 0.00010216521220207226
2717 0.009518973809618112 -0.017596062834145894 0.0011892147827189852
4006 -0.0006060077311949932 -0.0028164833598871694 -0.0032661138217270707
3133 -0.0005406266080688534 -0.00311812907462016 -0.003715499425631238
4008 -0.002047700973764962 -0.013173481115157249 -0.012504856605296986
4192 -0.006392408974605203 -0.0045594420024018196 0.010616705309973743
3614 -0.005205450497150057 -0.0016653441197781703 0.02627515678606539
3615 0.010311548903312788 -0.007957369731668234 0.002847583134862369
4193 0.0019407464425148604 -0.009916276582013307 -0.023203546472020938
1217 0.004928373515215003 0.001719964078732255 -0.0024162739817305606
2491 -0.0023087929948932776 -0.0015209817038385526 -0.002997512675663926
214 -0.009815119263498324 0.009664709581529615 0.00401591273848835
4259 -0.0007376122304423691 0.0031578444828716185 0.006810108445050702
3613 0.007169093627249162 -0.0019157693550616796 0.005675918050587477
3255 0.010528164115593791 -0.007490750516889598 0.0041192800136082616
3254 0.008691381757561886 0.0033366562096619388 -0.018071381181190123
4271 0.007088687268028623 0.000622307873878109 -0.0018363407597410707
4295 -0.0011203363154561937 0.02324561454757387 0.02150305443229765
1123 0.03574745970582796 -0.03022116957318769 -0.003385365592678444
1122 0.0006765465247290241 0.006644520035490087 0.0004812610792048811
4294 0.006962195746718799 -0.00061748086309689 0.003253480453547101
3135 0.001962909144255344 0.0012627902474987283 0.00386496548015833
3491 0.01258960735551923 0.0076996276403590485 -0.030999009688987146
3435 -0.004164328865578824 0.0062804576560062005 -0.008291254027907249
3433 -0.0016329589027894741 -0.007150934779609553 0.0035341730862835856
3434 -0.010020534564766691 -0.0014896730966574747 0.016632264546348995
1117 -0.0006967821403828185 0.0003363795826641203 -0.003327174153181087
1120 0.005986928629803623 -0.003284047607413187 -0.006338567963420146
4296 0.0012193473966726047 -0.01292275515161332 0.005818746344022087
3991 0.00419348808815216 0.008932352140706706 -0.002888609393638211
4279 -0.00043386373746891486 0.0011597189388270577 -0.002267696847740831
3992 -0.0011281242292840586 0.02016635720250981 -0.018695835384713574
3309 -0.022726377229301424 0.004700965784094344 -0.005295447076952429
1118 0.00016647155960699877 -0.0014095563893717997 -0.002864870324648731
3993 -0.014295371414870656 0.012565360720412398 -0.011178749245159965
2964 0.0024767213360032594 0.0041058576748457766 -0.0031768524736886963
2962 0.0029724959700851185 -0.0009562769842630467 -0.0014955487544057308
2963 0.009497485002001314 -0.00885970143119128 0.0035401558283498433
4280 0.0028613958875725078 0.013277649205671777 0.0018445367982188046
3486 -0.012687196725208707 0.023394864365106995 0.010810672914348117
3484 -0.00557906957471551 0.004064455866794524 -0.005349747562171972
3485 -0.014030671355690244 0.02093054138605122 -0.0020045274985883966
3016 9.770400744820993e-05 0.0004490490088582767 -0.000479101157478093
3728 -0.004638252184355445 0.00032924539526893855 0.013463331340729764
3727 0.007431318220964351 0.007013378988319793 -0.0011564730323954124
3017 -0.014331144627822675 -0.008892300738926561 0.01824679821581453
3018 0.009509218817423412 0.004132188833432073 0.0019423724663262252
4049 -0.003416983648692768 0.01934165412207951 0.01708467214187815
3417 0.01158209856267112 0.008659824030346276 0.000855179324471628
4048 0.005085245405938508 -0.0018198625136859204 0.01047372330928418
3840 0.017417333705211906 -0.017699126253676378 0.01865481141863779
3838 0.010353662582556685 0.0007240289819601801 0.0021836818091310133
3729 -0.0054407380828610415 0.0044525851549837864 -0.0009425376951176488
3839 -0.00747612355706926 0.00027678995586625507 -0.006876140956412609
3340 -0.005279302109630574 0.0003593989099972561 -0.00018800694894019032
3342 -0.006840885686259714 0.017033197137719898 0.0019736862717484567
4478 0.006630893882373767 0.0008949432962968053 0.00038046446817775477
1121 0.013553688646142412 0.018254055053796032 -0.004076475187600621
4477 0.004361832155213568 0.0022754188500479487 -0.0001780934210874859
3307 -0.002950723785477076 0.00428109304200726 0.0002310561989191063
3308 0.004602069194266638 -0.012281354552473882 -0.008097346233076137
4479 0.02347557171127775 -0.02116823371405944 0.004761566156791592
3415 -0.001500308436995621 0.008827966762929195 -0.0061961682539982375
3416 0.013486609814495116 0.0069746508625407565 -0.015681830831424524
3851 0.006429987636107268 -0.0023196904474889427 0.01016827137467509
1116 -0.012287659715384881 -0.008677511923022432 -0.00970753465096176
1115 -0.0004628511291332594 -0.002613718915206795 0.0010298533150374027
1119 -0.006308373568405143 0.009086118235000657 0.0128949058250741
3192 0.020220192012958358 -0.0011595067358207446 0.010695616495419233
3197 -0.0026787955846305665 -0.004440597517330455 -0.0016827360052758477
4365 -0.012664818493182474 -0.01480343405393893 0.0038659147960100203
1841 -0.008947490190677245 0.01895581922632722 0.016300040937747475
4002 -0.002873685606429924 0.004346803243729416 -0.0015031515623597077
2978 0.0009409675997322939 -0.000514241861853991 0.005932903344839408
4000 -0.001980025986572739 0.00621778217386964 -0.0013804447776778871
2977 -0.0046691876080359 0.0062422507203996995 0.002292402644779393
2979 -0.02486781779281493 0.00018144702336276406 -0.003516999427970378
3438 -0.03552633879290414 -0.005244385507957776 -0.005808537463664739
3437 -0.0032100982278139047 -0.017473369745366153 -0.033415843883137654
3436 0.004184788254997544 -0.007375976855468797 -0.002156696471731345
4186 -0.0007403009109610605 -0.005826705509036675 -0.0052770082257949085
4187 0.0031417020927352337 0.0035320303806228126 -0.0035131329528167686
1216 0.0039698135057907894 0.025692396317239678 -0.034977744213558225
3134 -0.0022376482478929727 -9.821946784920645e-05 -0.009819451472135877
2492 -0.0001340135554536046 0.010182680486374177 0.010928569851759867
4322 0.00037458725642834515 -0.011499906784761035 0.001307470441271462
4001 -0.014652316619859681 -0.005185701680608744 -0.001881385353752545
1367 0.0028765794698054938 -0.004196257037910622 -0.0005359839305074317
4188 -0.0017436577086878103 -0.0020323203344634736 -0.0038651293451116685
826 0.0015997663961153867 0.005630832650656265 -0.0179594838007874
3190 -0.0016178293582204558 0.004571556304144881 -0.0007652880867568823
3849 -0.01709893174812416 0.005225989695852046 0.003903984715135443
2994 -0.022809652179230276 0.0007810808037607189 -0.006893189117329382
3847 -0.0002855783809792834 0.0017109620619435973 -0.004056394849996339
2992 0.0002105536928615432 -0.0037430585608554264 0.003484895494978586
2993 0.0024608584712057812 -0.02444264272360713 -0.00362107229619254
3179 -0.007056264178022827 0.0018795481681900827 -0.010234304259685295
827 -0.0003738146754747459 0.0013088235431968156 -0.005507577435456904
1150 0.012709658642697715 -0.008477966926888828 -0.01723890061089923
4425 0.005211672889449525 0.002911901638169984 -0.014367728528153599
4423 0.001650557835363634 0.0020864330055893232 6.7609210584874e-05
4424 -0.04324607008196321 -0.02613218080044013 -0.014314119595889699
3191 0.01981871682936672 8.225889065821844e-05 -0.020047797240845055
3115 -0.0003439998816798152 -0.0005995071656103466 0.004943342537973563
875 -0.0052394104419542726 -0.0021265667719768495 0.0009722471920040659
877 -0.004140795015963236 0.00656075066716621 -0.006974515870189361
3341 -0.026237721454879015 0.001365557896666173 0.007680825900274257
4003 0.0029381327005845656 0.00827088587397343 0.0013951058511271028
1756 -0.0037056421300612524 -0.0022971005596938918 -0.0028180541779938353
1757 0.01762633209046037 0.0011448306305570346 0.0032579195722920455
882 0.0005081860880758409 0.007671135346714258 0.0021148710292855297
3162 -0.0226779393756573 -0.01639180891831509 0.02194446602809561
3160 -0.0013488811987428834 0.0024380850884326223 0.0014614611583379951
3852 -0.0010449069141596629 0.020393439559166414 0.00940395515063882
3354 0.006581816009266718 -0.00171752327770305 0.003927784955055381
3352 -0.003991387319874379 -0.002993142799925355 0.004653658891607564
3353 -0.011901243441337512 -0.002837225110457681 -0.0068927033338137675
3474 -0.006869262983874295 0.002548661753424177 0.010853276936974236
3850 0.0029875298110116563 0.0005909227750224361 -0.0007336666741313192
3848 0.01247901035883794 0.008064187000480602 0.0106210685780498
4004 -0.0060570583088986225 0.006593514015939454 -0.008103477515430708
3364 -0.005757415816229504 -0.0008165158296264089 -0.006004684454422126
3366 -0.025350225544961445 -0.006682716840360405 0.004925398093433509
3473 -0.015806808987068054 -0.01262371807627488 0.010579725093871764
4073 -0.003545145167617782 -0.009631245326055757 -0.01022330681380961
3472 -3.748620322240524e-05 0.008034596536065431 0.008420214335387817
4105 0.006044942245425328 -0.00789589319459359 -0.0027213291109462524
4106 0.014315614554383231 -0.009365918000477837 -0.0012468744363845082
4074 0.00687768498725258 0.0045991280175559845 0.005931839998608526
1248 -0.0010460660077481051 0.005071108838967669 -0.004670016905595923
3365 -0.007778611462583114 -0.00028847886122282423 0.0183316225996698
3915 0.004178242131754534 -0.006622197334195984 -0.0040545604199354905
1251 0.023612027576593694 -0.0022353202108712582 0.007536165343069116
1250 -0.003052491596402481 -0.0051843692841468895 0.0009901234392312803
4107 0.0023020664560296404 -0.018246039914232424 0.008021202999450907
3144 8.483882253941114e-05 0.015487690660120209 0.008758133443026943
3913 -0.005072857711591687 -0.0014786721511303317 -0.005992765300324824
3143 0.0007757728189235404 0.005535597502961216 0.005612507369889987
1253 0.001505218504594958 0.0008969630345884599 0.0025307506621334683
1256 -0.00038776388395479544 0.0024750462042718926 0.000799665570085958
3914 0.011476990880458695 -0.002767292236385054 -0.009703862894536782
3142 -0.0006565890773928127 -0.003411201605873302 0.004804928577449309
883 -0.008520705245853731 0.009330281807752841 0.031517702407809545
4072 0.0001758460355752465 -0.001735568326236737 0.0014453921660158256
1249 0.012067444710303807 0.016777072023416408 -0.007975390122239613
884 -0.00016723958426137785 0.0025218092248293403 -0.008047216251043652
3161 -0.009995742286473071 -0.008059866714399313 0.010178388346004517
1254 0.008207119939312026 0.007377892832172363 -0.005003270117784252
885 0.009512436762074425 -0.0230607508863996 0.0013132113650556085
1255 -0.0033381534072002197 -0.024211556650727602 -0.02242142628922898
1252 0.00038372887403180555 -0.0037593332198141696 0.0007043735256615981
951 -0.006404708517566562 0.00921529015023808 -0.003231643844570638
872 0.007189981359510509 -0.00017164044804784744 0.0005790695644787447
955 0.02067824355603771 -0.009399866737149912 -0.00386656704524734
956 -0.014254023418452057 0.009856887026255512 -0.00012034479586051436
953 0.0006794362363170644 0.009392376329031461 0.001178870555517225
954 0.004407173405787324 0.005423646825932483 0.0146415449576218
1000 0.02457303222266969 0.002460508478252444 0.013213914543157772
4057 0.002453556040789492 0.006203271542852345 -0.0032780679791674454
1382 -0.003758977163281115 0.005971679795894966 0.004545306393005037
4095 0.03194229388934506 -0.03685745967584414 0.0006169097058626938
2760 -0.01501551556285941 0.008224834972041864 -0.002353384611169549
3497 0.01714052756174013 -0.0039626473817379665 -0.013421592089002315
970 -0.02173391254846815 0.00029651669101238444 -0.023565005104268035
3072 -0.0059884802365213225 0.004028356848828266 0.004250685405417918
3969 -0.01730111521005029 -0.00392844325991595 0.00018610147748578156
3967 -0.0012578882350081577 0.006033579422357231 0.006595454344714238
4275 -0.008712286932621676 -0.004424003792814271 0.010590625206867025
4273 -0.002605652577436533 0.003582293684676007 0.00409271775802872
1660 0.00429542435127482 -0.001678720913892818 4.16740572406885e-05
1662 -0.0018058848403631424 -0.01119553757139959 -0.0073834786002556696
1661 -0.01479780711997726 -0.0011211296619033579 -0.011636508091337875
3604 -0.0017093180480073286 -0.00023678772482393513 -0.0025441977126320608
3606 -0.00041475166492574824 -0.0034921990289417774 -0.002024819104855025
4343 0.018599985439112687 -0.02656092399247753 -0.004251427430485773
158 -0.005708017637384241 0.004349109196513818 -0.0012815587552741888
4358 0.010832184705106527 -0.003466821500161024 -0.01636560710112545
3971 0.04288475650234242 0.00855518468969689 -0.018948843653935368
3970 -0.0027608052623460584 0.0018365896329564954 0.006372270363784253
3972 -0.027768021408105425 -0.006262292358104838 -0.014232467368654501
2863 -0.00871583604918815 0.0007114223063955848 -0.0031078177188520488
4359 0.0021916265424075493 -0.0017662621023834687 -0.0018674236357412775
4357 -0.0025245071087762936 -0.0018600402260865515 -0.004120226624422228
3795 -0.003643351970288686 -0.028589194587221773 -0.029112227997033474
2480 -0.011772829066443925 0.01820947866177768 -0.005582898991390724
2479 -0.0008578408481764939 0.002557555365681761 -0.002473949102520848
2481 0.0242599241302882 0.007056330454160985 -0.00995764702122653
4274 -0.018585904907954916 -0.007790024157851802 0.018443041757497076
3654 -0.01622136240223948 0.005792248285950022 0.0030702574823561644
3793 -0.0018423937598740774 -0.005630302372188291 0.006385606538889006
3652 -0.004651179160159003 0.005354923687490222 0.005449244632337642
3653 -0.003988099480439738 0.01619227461384984 0.012398336716912648
830 -0.0028819687992405305 0.004016533590948485 -0.006732597302725893
829 -0.00898178999501094 0.0016485404090397448 -0.01464986555937481
828 0.0011294058993354063 0.0022697951101435794 0.0010175672365608057
831 -0.008548667960112869 0.0068178687372668825 -0.0019147605644638192
845 -0.002389293385401457 -0.0017978269142435136 0.0007041873307463799
3070 -0.0017897562530259366 -0.0018697478718852972 0.003991298409770456
3794 -0.0027675052862606406 -0.013502929952048 -0.00886240900449824
998 0.0008300573579683757 -0.00035841614559167475 -0.0020553654879290274
999 0.030963651299464327 0.007880898765255844 -0.0006120242000501884
997 -0.004819553444062833 -0.002847209539710614 0.003964164516466695
161 0.030021826059826145 0.016420588431101387 -0.009258556335187832
3453 0.007215007947416355 -0.004319664429581161 -0.006668792267100664
3481 0.0008420962489594715 0.003986940629495292 -0.0027983821536074387
3430 0.0013644745145011807 0.004615351289243937 0.0008416915650929306
160 0.005344732349843077 0.005428350535143876 0.005826224108175219
1487 0.00394791428808059 0.0002546387926821783 0.005466477354264232
873 -0.00423114362222733 -0.0004756627664311566 0.008011353771356092
874 0.007469683050602155 0.023295492226337467 -0.0059195483267313566
1489 0.007799532354779709 -0.01884176572535513 0.0336253393406852
1488 -0.0028616184751092746 0.0020108070500153333 -0.0008980214101874341
2459 -0.01580355979810591 -0.0034325774685297367 -0.021792004896631714
2458 0.0010435051051492746 0.006214528204527055 0.004731782029266628
4230 -0.00770906554551143 -0.0009125042355516775 -0.016110092929261785
4228 -0.0029339911501879133 -0.00191362446283916 -0.01218872318218835
2460 -0.00535558818790796 -0.018070981343842434 -0.00013968277143960327
4229 0.0022711519042393122 0.0035690350491965023 -0.007019481082436858
3371 0.008487436627862747 -0.0003717731543754958 0.000700483384040776
3508 0.0018865584409762054 -0.0013397037617139383 0.0022315666677842627
3509 -0.013946028642172101 0.010717448255391466 0.023730338575158105
3510 0.014066053322369756 0.006578372941369201 -0.025667588668961926
1491 -0.0003461951713362445 0.006624793103974387 -0.013941758370260005
1490 -0.0008389025376060351 0.0010620022962310985 -0.001397540225569685
4236 -0.01364591750698439 -0.009742078056020825 0.00159799778122594
4234 -0.005967601246381308 -0.004824109309021847 0.002916400644582656
4235 -0.006092762772211533 -0.004776074477487019 0.0036184823102410396
4450 0.004085260063300846 0.0006623861300738237 -0.0022621329911310366
4452 -0.0029216775487056496 0.013158621740736358 -0.0069953703716259625
4451 -0.004991219101787827 -0.007696495095832442 0.00548212324857807
1497 -0.002987297094142821 -6.030183997229928e-05 -0.004657044583399572
1498 0.014550440357737036 -0.01256972000408029 0.005495511424235649
1499 0.005513179653527224 0.002535497397816806 0.0021185566154109776
1495 0.0063152534575384115 0.012553088590101683 -0.005282571557476866
1496 -0.005551375456576667 -0.001323854379781372 0.010941921216818312
1493 -0.0014523958201911689 0.008717333893643462 -0.005992111437107804
1492 0.01489507790124654 0.0013786689601003588 -0.005171787965428861
1494 0.012458057071651674 0.003568459468536408 0.010362568232965868
1292 -0.0013920786458003981 -0.0040468301020850925 -0.0020850150130553597
4076 -0.026534392601954983 -0.003638761697537862 0.015375454164169099
949 -0.02007620923780355 -0.014262588233359127 0.0037445239386253736
948 -0.002527568109487257 0.0013554723136308645 0.001829122038841912
871 0.010976784125267456 -0.002980900657413556 0.011462599133925996
946 0.007399790780327433 -0.013550555591491263 -0.0069605803600386726
957 -0.004228060244499017 0.0009897133642887104 -0.006013932468630883
959 -0.0014372786996909926 -0.0025989549904196167 0.0010355599340596466
960 0.0008385653923021736 -0.012703310760687115 0.014863040898341914
947 -0.0052648434190731095 0.0036655086699705296 0.004694425730943198
958 -0.0021283124944879387 -0.03117559288058955 -0.02674496033636585
950 -0.0009371116559276599 -0.0029248969600234945 -0.004668256993041881
952 -0.0030704725803057066 0.009338681243530763 -0.00046955028744209405
159 -0.0163208018574611 0.009952565226749482 -0.018612190534739205
130 -0.003359554346817253 0.03530453421104203 -0.015606718135799454
1395 -0.003264248416358289 0.004533095638893625 -0.010230980380420283
131 -0.004022068423835252 -0.02466424996696198 0.01541971677471038
267 -0.0007748847135512475 -0.009843131424460016 -0.00830466579549282
3108 -0.0001222160229807215 -0.0025280406076422205 -0.010962045082835398
3007 -0.005326413617749013 0.0018449159233613801 -0.003337056690639888
3008 -0.011123995770816035 0.010668612909007722 0.025736075486470406
3085 0.0007568476397526583 0.0023900075059110158 -0.0015493680218867049
3087 -0.015173188316550559 -0.001273653109598004 0.03828133225815027
3234 -0.016474859908797226 0.008414209540400452 0.0021465015679710824
1885 -0.0008555116534343141 0.0024751810438332204 -5.861564403715153e-05
3531 -0.013985930206835842 0.004819900634617902 0.007823703431370194
2864 -0.005590161044708219 -0.0019328365246996625 0.0008667924346553835
3014 0.009444443112223023 0.01091847210167975 -0.005723085689143113
3013 0.0006343547568912673 0.0017502944778399025 6.185079283370277e-05
3465 0.015027446356097677 -0.0077647205274507655 -0.011602604543184628
3009 -0.010636624551542543 -0.0035544638922896748 0.003732266261314405
4038 0.0020536175229873602 0.0025395345754956724 0.0041306513782546316
2865 -0.0028307025867190627 -0.0075510720375137575 0.0025413152955146632
3015 0.0033258876287709455 0.0019973521957449654 0.0007659420904902004
3463 0.0030552268166528624 0.0028932301125157754 -0.0016105967592709716
4239 0.0005654558342445783 -0.009831308440570726 0.00041628967659692207
1500 0.00522158140320712 -0.008844663209789468 0.020183641208093874
3862 0.0009071067847906747 0.0002312964707178981 0.0036240178730356835
3529 -0.00020042089286667587 0.0031884539016874434 0.0011321338925227205
3530 -0.007171774377621157 -0.014694119794782025 -0.007424210372451408
3864 -0.0030075193951233 -0.012165929864883893 0.011320534585933248
3985 -0.0005252895282497281 0.001094261141951255 -0.005150443413544077
3987 -0.008427715210176386 -0.02354825907367559 -0.00041837808264374066
2138 -0.003866711665043967 0.007430318434740738 -0.001279019240489858
2137 0.0022618798539711976 0.0024275154434065162 0.0012183244045403038
2139 0.0006640820209631504 0.004763064878985621 -0.0027482383617583226
3464 0.0067054096531267236 -0.00829117460920285 -0.010768682443654528
3383 0.012536637677315814 0.01693076375743326 0.016330836808562222
2274 0.003506178831210069 0.0015874652321707838 -0.013690478954623676
2272 -0.00638026099592128 0.0009727930460292779 0.0009649971616489321
2273 -0.0018492942109880797 -0.00034717481846953445 -0.012295298277578134
4436 0.009487175085802485 0.0006573871369501334 0.006535500715885242
4435 0.0071388780752175505 0.0020967369121782883 0.0029409855353147436
4437 0.003955924018472048 0.0050762961680328065 -0.004894869975073053
3863 0.004574727681732734 0.00018025293894149646 0.004523721854736166
3986 0.00794417630882161 0.02116535027584708 -0.006955331598612336
4029 0.01608503641975762 -0.024117683099068907 0.02235306489443195
3106 0.0009839454137840326 -0.00895285922317048 0.0003361489106411006
3117 -0.0009289779048550406 -0.0022554148582199745 0.004993197208753975
4177 -0.0036812629617042807 -0.006761903672946644 -0.006439558774731883
582 0.00461473467834367 -0.006805429789028967 -0.0074415056264956975
4211 -0.008374270073432645 -0.002609005763977692 -0.0037106843974979526
1126 0.03219533731624671 -0.018411633652420375 -0.01381639352081046
1486 -0.004063101402207265 -0.024910280238435514 0.007399240719194808
1294 -0.0017455945151903297 -0.0020041175519994 -0.00862923105333315
1293 -0.005406274178327243 -0.005232027054937707 0.005442995988132327
3382 0.007008282018074977 0.0043101236527277945 0.00668400187634732
3384 0.016454397565523922 -0.006707061311939922 0.012317851727979093
3199 0.004376383934367993 -0.00078906814386596 -0.000989005269382022
3200 0.005583443599673365 -0.014898064372094915 0.00010166553892960917
3201 -0.019985313358614653 0.00411660983522494 -0.016151224943681968
1291 0.009565899294500678 0.013428965864914376 0.02038564044205719
3627 0.0028548652077785867 0.0038903302287304313 0.011401146468260806
3626 -0.018019210352570553 -0.00803432445597254 -0.002559243505119283
3066 -0.0008281674359064246 -0.011748182441940045 -0.0030801588513864765
3625 -0.0025159579528039513 -0.0006739357020700833 -0.004726112822682119
3064 -0.0021846663816487456 -0.004407658086736718 -0.0017643663668434966
3065 -0.015396709269555647 0.004675161758940179 0.00787441098409721
4028 -0.0036758678493276505 -0.02328392564336248 -0.009122785898458009
4027 0.0025340177482759386 -0.0020102973238147917 0.004039541053702327
4092 -0.001284621682003069 -0.0016988027640253765 -0.00043691427531927427
3272 0.0037121615109333337 -0.010006593629298139 0.007288639451661182
3271 0.0018154104284836853 0.0013421735665583767 0.0077936388543927565
3273 -0.0005098239506377701 0.004020363617649713 0.01927368312051144
3599 0.015033514824103951 -0.005043810388659204 0.005334293600454443
3598 0.005004896150425978 0.002814621419010693 0.003211797247802051
3600 0.0049277876380578135 0.012712442205687971 -0.006358876211998487
3826 -0.001447630192281845 0.00896846450566473 0.003934476774726258
1129 0.047261509882215356 -0.015119148439815728 -0.011839331122460623
4010 -0.014960275635431624 -0.02359542489975758 0.0014549000951345956
4406 0.026842367539591808 0.01977656085065725 0.012717048234018946
4407 0.010790591947905276 -0.009726417013907375 -0.005429044065566454
4405 -0.008251817849437496 0.0016273552595715253 0.0035094783219485073
1618 0.0024480164944943052 0.005852435914911115 -0.005976638388668293
2173 -1.1730927456061836e-05 0.0030268274606924635 0.005269403885550095
2175 -0.004255978019143009 0.009724988939836672 -0.008264944371574854
2174 0.009823439674148959 -0.005049099590855653 -0.002960388349978529
4430 0.025142165649873375 0.009381113484146922 0.013759688251376665
525 0.023916812873582258 0.015524300561677418 0.01880020561547886
512 -0.004039064773602677 0.006160193114143722 -0.001936368812405526
524 -0.003313279224467523 -0.0004283950141802811 0.0006307675918762192
511 -0.009059904724408681 0.016000945443202273 -0.03027521574062325
4011 0.0025632853126787815 -0.023838643062691504 -0.00046489058112782764
4009 0.005945598296707404 -0.0008999946162953228 0.005266332945807412
2997 0.013805749862567258 0.007302530312355381 -0.014480796264925162
2996 0.008239028472110197 0.0052985847344703295 0.00820291478882876
2995 0.005794459699236921 0.0019157324711569857 -0.0017389592137352732
4040 -0.01497281687612633 -0.010938701351540105 -0.01280019437163022
4039 -0.0013915568654514852 0.006661769859003623 0.0008541839412965043
4041 -0.0007444111144316326 0.0056041044593657 0.004244169376249525
4152 0.027579768428641394 0.013835673002967664 -0.0060356407760926425
3359 -0.021394080751656757 0.008732550897763532 -0.0445168410357319
3360 -0.018551261467346168 0.016250281459230305 0.02816576550189777
3358 -0.0003837585964883751 -0.0014276324359412307 0.0006469430273023649
4151 -0.011742647416477082 -0.005178023170426985 -0.004768197555335957
4150 -0.003998436544513247 0.001592855009172735 -0.0015466280689767505
589 -0.03113720032583099 0.017638835067917746 0.0049839896052560045
3525 0.004704408263977175 0.012896875484369104 0.013066982547033389
3523 0.0069510242806700455 -0.0005246422469319822 -0.003189063204331564
4429 0.012610544202457948 -0.00047470641148315086 0.0023956249984444095
3524 -0.021663656192169617 0.034773308743694935 0.020264325738090803
3938 -0.009678429353662752 0.028015848042299844 0.009604989281206426
3904 -0.004722015978513328 0.002790438087166477 -0.0003793109188164974
3905 -0.006450280229194806 -0.0066525800430025555 0.025872617524042234
3906 -0.0005291914435359656 0.01924549272780449 -0.046124819990564815
4070 0.004091706931868212 -0.010990309067239447 0.01287729917940495
3585 0.0035280251417158935 0.00472296105398858 0.007590905105727892
1707 -0.008876693876613825 0.0038079020803090014 -0.00470259766686542
3443 0.004978991614451764 0.004323329972135245 0.00360270518772122
3702 -0.00468122162303957 0.02252549071774212 -0.007291872443020259
3700 0.0022129972187246725 0.004409891546118708 0.00019350113422821478
3701 0.010887328471906568 0.025343113189604045 0.0038540488186168866
2846 -0.006504792777364851 -0.0004485538220316186 0.00019994841524494163
2847 -0.013076052847471013 0.008736517796736098 0.014108278340970297
3939 -0.004397575552067263 -0.020003785966619832 0.00158538884696696
3937 -0.000975702729800769 -0.001745079306824163 0.0020552095954870005
4431 0.01675405414431755 0.0008652485409990997 0.0009910303195787382
2845 -0.0032436599604137597 0.0054796817854068 -0.0019710168429734345
1134 -0.011234492169255421 -0.004843078644499317 0.006370227733440549
1174 0.007136668725319863 0.008632320180208895 0.0032845220396694394
1173 0.0034491575504162087 0.0070573076194844235 -0.0034165481689853575
1171 -0.018091415911133436 0.0075943988860129995 0.008293700393016053
1172 0.005792153874977481 -0.0015087631721496474 0.004935001331960595
3298 0.0017347574996708006 0.005664780599271285 0.004666003948567358
3299 -0.023061931246058494 0.0027268710026199885 0.020095081225386866
3300 0.003295223359149939 -0.0045730279792440725 0.008364611537047404
4031 0.011769622084535972 -0.008274891101117123 0.0021583874549149337
1184 -0.002736989893065817 -0.008921725291043632 -0.009123738203700191
1329 0.02193545425018343 0.01384822436606461 -0.013316780411800113
1333 0.02433699951593947 0.002243302756615687 -0.003743736973278601
1327 0.001436309564195485 0.007403506148379581 0.004948536590762264
1326 -0.007569967674100701 0.022740499100488726 0.024864461010807876
1330 0.024555823959373998 0.005602138147557842 0.03294905951865931
1331 0.01645094778433261 0.010638761233257304 -0.025847282716641534
1328 0.008762565227382876 0.004791978284852468 -0.006324427968384861
4496 -0.016938330285055016 0.008746454696772783 -0.02788780906157351
1332 0.002465690659956368 0.0016839592857819093 0.0008332833336957686
1334 0.0002744077578467613 0.0001855974228832125 -0.001366575821863453
1325 0.0031831184533697675 0.0005836496176510073 0.0019772577267900358
1182 0.0010976180961645588 -0.0014498537345407378 0.00038500556903628316
3657 0.0059696159670374095 0.004356687890364102 -0.005844836198153122
1176 -0.019665585320922125 0.016222324460775657 0.0015195135479615233
1175 -0.0013974333571126598 -0.0011684630216018033 -0.004899014234919751
1177 0.002168270826302475 -0.002560955874408102 -0.011222353106987045
1241 -0.001985285831284437 -0.012189196828514444 0.004457644862809789
4032 0.006817341920192686 -0.013650930306441428 0.008792156784928366
4030 -0.0011709667955589072 0.007047877866886157 0.002542947429390361
3828 -0.0022606312843273585 0.013239492664674612 -0.010499718685573471
1240 -0.001086346073355839 0.01142809540034508 0.0163068456105514
1238 -0.003403130257664386 -0.003453570988108049 -0.0032460963235185635
1243 -0.02350806943384665 -0.019767495334834535 -0.009694883205731883
1245 0.0060092681350174286 -0.012034434764772436 0.009827493988832136
1306 0.0019786621896164635 -0.016347569228503354 -0.003801011658609737
1233 -0.004007480350560909 0.004262166278107267 -0.0042954064137208335
1234 0.00884399245845555 0.013894636714179502 0.001700193047174911
1309 -0.03581035511595573 -0.010398941973855366 0.010781015098702702
1232 -0.0014259236776148633 0.0020310036326448852 0.0023892981759661407
1231 -0.002257972798793633 -0.004082315024515786 -0.0034285520963337167
1236 -0.0010941205892147018 0.0004297102947819707 -0.00596487309278699
1235 -0.0026086281648931863 -0.007008433324160847 0.00013958823938907416
1244 -0.002126117429168053 -0.00023275470691037453 -0.0022463805340493374
1242 -0.00915787570949875 -0.004857710923907522 -0.002575056498960688
1237 -0.001861428724379158 0.005792110205055175 -0.004441094625538812
1307 -0.0039018900131828475 0.001900651429161305 -0.0007710617073349564
4189 0.005801468082869134 0.0059802980066591465 0.006746930833174832
4190 0.0027035647437851783 0.013476815211449937 0.003918843502627001
513 -0.0037305991406922567 0.00495417278219997 -0.0037113330209911847
4260 0.004695581599003845 -0.013171263157330618 0.009199354762581264
1230 0.006044673726665396 0.014844604701168966 -0.01200687450875472
4258 0.001327073331516289 0.001408518729765511 0.00840550243043655
3248 -0.020529953907579276 0.0333815636066675 0.0003536835870487503
3253 0.0013118625144968776 0.001013787103118405 -0.005916693584111689
4194 -0.0032039230391510552 -0.012193103501316213 0.011977163766396948
4071 -0.0017829690658316866 0.006982159734891128 -0.0020716935478584417
3325 -0.001291147703520273 0.0018063554588157295 -0.011048484944198002
1998 -0.0011759862316383823 -0.0163685468539097 -0.017101146467850794
1996 -0.0012188523793619894 -0.012255046109715603 0.006078136715443891
1997 -0.034103206505143195 -0.0103552058459545 -0.005984431753906906
4069 -0.000343695880289369 6.629596437483888e-05 0.001983876339515674
3559 0.0005260341412428094 -0.00487674605136555 0.0025115407743714416
3561 0.0030703628145320695 -0.008143556256048743 0.00490123225413307
4196 0.0011050866562351631 0.00746710941173672 -0.0028333291156990028
3560 -0.004489958539867985 0.003604644213953253 0.005564473403652898
3327 0.0054612929509146955 -0.005153337739797682 -0.014644477062660557
4445 -0.027841402028891245 -0.0011039795055461873 -0.011166372594813925
4444 0.004633163427036482 0.00906961941544882 -0.000782883289571071
4446 0.01618010648366077 -0.010811188348764223 -0.005874194049129777
3095 -0.031287715213531374 0.0022966278941799474 -0.00896571707030998
3094 0.0015029567670528114 0.002773410522405107 0.0013745646288839787
3096 0.019899769905321538 -0.02146080197640705 -0.008351284949202556
3821 0.0028963765572517083 0.017003736863834395 0.02451380103270655
3786 0.01303341882303105 0.01236337906345841 0.004648716822643994
3326 -0.009516349564587993 0.003292982112309963 -0.004079979826282708
3760 0.00321587638498685 -0.00022876864763108848 -0.0017907473233626959
3762 0.008923306797481491 0.01477078627819378 0.014850613664704995
3488 0.0209556550898595 -0.006753000127166503 0.009869584323711269
4195 -0.0008710112565137373 0.00953409240920777 6.224299200095796e-05
4197 -0.01793894714385357 0.027808994575048533 0.02442040223573781
3820 -0.008340270862188756 0.003963287564569292 -0.003436272083436307
3822 -0.04010300757395426 -0.002020228792974983 0.0024475397927012366
3761 -0.009888596072851712 0.004593980886860186 0.009578481003397189
3784 -0.004258064794837615 0.0015317155212264209 0.00623576278698828
3487 -0.006242946152949349 0.0001042274493868562 0.0019360440530343914
3247 0.007249129859927918 -0.009893735352310518 -0.0028794850809827567
3479 0.010984730276639768 -0.008253131437210832 -0.010874246572779425
3593 0.0031857191069930074 -0.012201304504710882 -0.009960773561963654
3592 -0.0025129874588020493 0.004165674486744724 -0.0016969238922842382
3249 0.021938271795655242 -0.012923434485836377 -0.017781886157004635
966 0.02740410969713214 0.020259602401300588 0.009717399239464663
1179 0.0208174246345332 -0.005669812658894125 -0.007610359001829321
1178 -0.0070902124819407384 -0.0038605589149546364 0.00277838692853637
1180 0.006014358592256721 0.0052315029719646145 0.001797488837719945
1181 -0.0031229537863075654 0.008763353447599185 0.012833941961999856
3489 0.00011085003410727385 -0.004676734987363125 -0.009687802844765643
1194 0.002389169756733208 0.010560592056521007 -0.0021205526273309246
3024 0.01170471534451423 0.018342992807698782 0.01607435439436503
3022 -0.003638244521820559 0.00013912878616841308 0.0017088874180509323
903 -0.0013001422414590253 0.0013094083704617437 -0.0018804201186999733
904 -0.0006271527074281226 0.002561667069625296 -0.024158264027634196
912 0.0031604595515634577 0.003097812867591509 0.0024318587087813932
1198 0.017242057135950128 0.015210655876696073 -0.0032295086141589783
907 0.002110587983771436 -0.0014620565273185213 -0.0031608575217072043
906 -0.01307935122223289 -0.022763026371485508 0.004853910564866895
905 -0.005648062356658023 -1.934380810688312e-05 -0.0034743053233791104
4495 -0.002515638876035671 0.0022406742629348785 -0.0006107470864574089
908 -0.0026574444327004862 0.0034756804984135466 0.0014852886519389548
911 -0.006442046712608454 -0.0007307512449116102 0.02660452265922114
909 0.00542560159901335 0.01508025492621287 0.008719328224274778
3023 -0.021070586211292913 -0.005573176799976364 -0.009836158950755932
913 0.005387059072292093 -0.0026431832206062354 0.010754916838731065
910 0.0006830124600601677 0.009074760608818518 0.010072618983380612
915 -0.02094482677998878 -0.028887486223633276 0.007883521086626703
914 0.0034011672666350865 0.009305649623144242 0.005102224527056772
902 0.003109505169888937 -0.0031926116148271936 0.009372281322951806
4497 0.009541203134741704 -0.024638044589398667 -0.011047279923964952
1094 0.0022714938096900492 0.002778669687722114 0.005538298571345057
1092 0.0018019218800922557 -0.006964533312809549 -0.003769928247758864
901 -0.002978744264321959 0.023383549490556023 0.0026956570631917432
1239 0.0002698192846428259 0.0003294930817920108 0.006710368828269004
4170 0.004912303660347115 -0.0013073819554553544 -0.007817311033988514
840 -0.02141991454719551 0.00589861220012412 -0.027588775300605446
4309 0.001676772636431482 0.005931665100622528 0.003309995550260819
3165 0.006230510503149692 -0.007059378790582009 -0.022789595977715026
839 -0.0105862492771552 0.007960186728035334 -0.005517865932214512
3706 -0.009875595501100945 -0.005030558006077169 0.0072606117337447535
3708 0.000288092321616514 0.009971535660609692 -0.006708196155341091
3707 -0.0010526198038004755 -0.006349088723354525 -0.002149770800223771
1601 -0.011535740739034572 0.001412205765647654 -0.0029166114391540347
3648 0.006970163716173439 0.006660705199077862 0.012287554637139037
3646 -0.0024415823220917646 0.003083602595710112 0.006973320725318712
3647 0.0009825328839425326 -0.004768882599651268 0.0016741295695304572
4311 -0.01997272186744166 0.014863029435283283 0.0040308985069758135
1141 0.005937298039177792 -0.003202087706953563 0.009884770337441211
1154 -0.0019943522094324055 -0.010741014554038829 0.007574753090026822
1142 -0.0030474685377244555 -0.0027398469596772255 -0.0026614160231501574
4310 -0.002671476711992504 -0.0069339546623797 0.01410481452660432
1147 0.0016124117941404331 -0.005473710522622611 0.004153371533596662
1143 -0.0033141929426153166 0.0013086713692956975 -0.0025985212625934894
1144 0.028110972365033224 0.009224327375401872 0.009306680543059519
1145 0.006720600933437638 -0.0029203910907057203 -0.003434426360895816
2885 -0.008218228874698483 -0.009590684493604652 -0.002866970446889269
1146 0.0013296367928863045 0.004429418680295232 -0.0012555407529309564
3807 -0.03224011148933447 -0.0012433702822034478 -0.004840065250554552
3806 0.026403164335242684 0.015107309542409702 0.02007047351197409
3407 -0.0007658560449022076 0.007888030704971457 -0.012534973154890168
3408 0.01933675230692396 0.001297545259707909 -0.0039463278234802114
3789 0.006164268820628176 -0.0004035697910917808 -0.007765238502869162
3787 -0.0025268639935603337 0.0014588464345596404 0.000945716205224145
3788 -0.010475675294194738 -0.006654720482869421 0.0024629661621762924
3805 0.004384734098314102 -0.00495133524416104 0.0013730264742646747
1152 -0.0012478153378341504 -0.002233714587246003 0.005203580064536116
3406 0.0066734484371715605 -0.0004552527144369841 -0.002992705209207404
3093 -0.006914629900775918 -0.0003895824005266424 0.007086723701440545
2984 -0.012478045491247996 0.02097663110579908 0.005727515040015601
3091 -0.0039022546944935395 -0.002258847098306197 0.009204647325415217
3423 0.008786654307128784 -0.013865838423184633 -0.009690035204202557
3421 0.00021687752448668065 -0.002681916942102503 0.0011843307670860882
1148 0.005397341778511606 -0.0009552566831959568 0.0018256152192664785
1084 -0.017250987765022485 -0.01860020168400925 -0.006185073018944872
1083 0.0036430658268387247 0.0009852962744134218 -0.0008459072707092648
2985 0.012733057540143729 0.011404924304051893 -0.002381893256435606
1082 0.00743313515420948 -0.006712077519813287 0.0015961783730679005
1081 0.011066896402609414 0.0059837970546283035 0.036481140627787643
2983 -0.0034934505664592536 -0.003513754144068319 0.001867361304033713
838 -0.005152281319495847 -0.0036035562189850943 0.019514787149931222
3422 0.00046688433299843323 -0.010820230747019884 0.015496038138065361
4458 -0.006725418825521108 -0.0005634991913535268 -0.00964845235761804
3513 0.002918273902693154 0.00360485172008935 -0.0016234962216280173
3752 -0.010501421241132585 0.01756593382841666 0.011812546544629442
3751 0.002920841980313816 -0.0009448958554224845 0.002808812262972199
4005 0.01192089065790178 0.018622223373928336 -0.0024330850717059023
3092 -0.0023113041730978686 0.00695436836290993 -0.010742135998385527
1086 0.011264604750351357 0.010608840446642327 -0.008545625625503591
1085 0.002615516740686311 0.0018249121781098456 0.0006290588938595709
3753 -0.015364382068684682 -0.004896562961913819 0.022855819457873475
3403 -0.007448639433078755 0.0013033484640590908 -0.002769080001373328
3276 -0.0018562604938814693 0.000661122296646018 -0.004613268452896159
3404 0.013003499328410563 0.004370057291271757 0.014335470613511408
3274 -0.006560815095495502 -0.0010337329484170097 -0.00402045280326723
3275 0.048103177059510595 0.017605132325137187 -0.009838302221637412
3889 0.005793519381452474 -0.0023354971461933384 0.001133733133981147
3405 -0.008083279392268357 -0.0280292664211024 0.03164198227712372
3891 -0.02987784626133478 0.01651411210966942 -0.00044867348442454
3596 -0.005068554617099477 0.009330622432344712 0.006458056768373684
3595 0.002260051889748787 -0.006589884492278894 -0.007883185612108028
3597 0.0005657778382292633 0.002388011572588377 0.0020077363695958942
1470 0.024947569800742895 -0.03138159390750653 -0.01482411195169673
1087 0.0008541386862636989 -0.0040513211159560825 -0.007578878774162732
1088 -0.0058777289236992564 0.004604480031415416 -0.0040824671702756055
1089 -0.007103258080968274 0.02653991328864618 -0.01813346248250663
1090 0.01986063920659678 0.02402171216056437 -0.01753532984477091
4290 0.00448115165015324 0.0029139593508866507 -0.005601095316135835
4288 0.004538908724356442 0.0023741907313025233 -0.006320072218893446
4289 0.0056584939350123285 -0.004834090296409843 0.0027997454448090873
1091 -0.007994248464348576 -0.005849264509396251 -0.005381816849820853
4017 -0.026303690742391563 0.01012544730491741 0.00038356032147383114
1469 0.005988653363705118 0.001176278032470049 -7.323343124489104e-05
1456 -0.009283124636654313 -0.00826821776326768 -0.004742629356835836
3237 -0.009963204256404838 -0.004873218259329827 -0.004817853168766289
1457 0.0009005991111872964 -0.001266812643942627 -0.0030460676415660875
1458 0.0012195975851727063 -0.0022986598817931695 -0.0029274847419608918
3035 -0.005787679463040704 -0.00487380610385844 0.0053667551924015
1468 0.00321264655632872 -0.0012976809139924768 -0.022789905994178312
3034 0.003255434195569603 -0.0023725141595000456 0.005235948363574224
3036 0.014039731141132673 0.0014637026118079182 0.004675179015108589
1467 0.00014619352644333432 -0.001409044659085456 0.00026124574654046493
1459 -0.038132225677348586 -0.012831773148086112 -0.027497946758574743
1462 0.008296414152475987 0.002703842433766864 0.0010620002874846839
1460 -0.0025207829675692743 0.0030164008473344576 -0.0035770282330200324
1461 0.00517866212527931 -0.004779510016232765 0.00452924624696822
3890 -0.007185980671441478 -0.008580341391392856 -0.0033401070368763324
3075 -0.002263495778005733 -0.0022478206020801173 -0.0016620175365863398
3877 0.0056984994008661095 -0.005977150539490618 -0.004777144549595095
1259 -0.0002241058622153997 -0.002744050436821098 -0.0020539821356881944
1257 0.0043397355033923815 -0.008292342539098914 -0.0011864192705393368
1258 0.00925652695261104 0.026708082411378106 -0.011677074952549335
1260 0.00047008223751762187 -0.023748161552695057 0.006144349673187222
1246 -0.008011957870087757 0.0017124508256912993 0.0028685444262615957
1247 0.004090280985029442 -0.002965099685765874 -9.463315674183712e-05
962 0.001095002371778109 -0.0008491755595624712 -0.00011476252671313771
1155 -0.014394622674207094 -0.0004008740660842734 -0.004190985438615555
992 -0.005240653877729459 -0.0009864826393921663 0.007039454608697636
837 -0.0029547236445341056 -0.0036242463373835085 -0.0005859797561649828
2884 0.00027983741500575026 -0.00517913134766615 0.0046024618243402215
832 -0.0030896238369624127 2.1216475890684012e-05 0.003055681407904276
4144 -0.002396149857571845 0.0071672108355287836 -0.0036468611516338174
4159 -0.0009344084314944974 0.0026312622875365385 0.0006051269011009407
4146 -0.01968799917469708 -0.0031896033907068415 0.0029259836598652168
4145 0.00994603218980885 0.01474439508198788 0.012967917722650532
996 -0.0026954570141193013 0.0066364828618456165 -0.018361933446990834
995 -0.0043347064257343105 0.003754120852005651 0.0018245756599596604
994 -0.003389093970908303 -0.0028152331048424536 -0.010795595904369154
993 -0.00117709215868425 0.00024913787727939835 -0.0035086427249755433
3302 -0.023943629591740644 -0.023076588420867433 -0.001510941003143651
3301 -0.00228294071083343 1.1618813252448087e-05 -0.005616437609816409
1384 0.009679957152043716 -0.012357708890335672 0.029619718057480503
3572 -0.0023050087189631797 0.022967578268394566 0.0050766146026901
3573 -0.00472331355255363 -0.01065132846743155 -0.02329538630321494
3571 -0.004229232762664506 -0.0006755922543337104 -4.823146715820162e-05
3576 -0.017319235196413298 -0.008136200172770275 0.004203550867036997
4083 0.010041325133794778 -0.012202514978306605 0.017419989664990598
835 0.006927815161231036 -0.0005362089090046882 -0.027810724447867776
833 -0.003052088904885784 0.006383714449623896 0.0030403931934543647
4142 0.015056687548082858 0.01717784506323118 -0.007623198647659907
3475 -0.003543859772835181 0.003800401433372858 -0.0033365191015350053
4176 -0.00840953331529622 0.018490592078542107 0.01200566367459848
4081 -0.0007496020532302445 -0.002005995938842605 -0.004582157041711757
836 0.003845476360721846 -0.02121767528656488 -0.0017954996171024838
834 0.01713577556061835 -0.027032692837636704 -0.002507488131127921
3477 7.61073487709927e-06 -0.0018507571484522216 -0.004896308513567962
3476 -0.011050491621056625 -0.0001383258969060412 -0.005668597922717053
4174 0.002225344983242573 0.001973511352442588 0.006437013105701372
4175 -0.00995653282152524 0.001291644740487097 -0.011887585251099281
270 -0.0009064700787690587 0.01063134171671985 -0.009113766283084978
4053 -0.008154985999790582 -0.009803999128833089 -0.013459376253976056
3608 -0.01682824148982527 0.002944821153940553 0.017792587613391492
4457 -0.018075571999929207 0.010368882426667123 0.011085921286810503
4456 -0.0031443825232342123 -0.0013101709809828273 0.0010746929506772964
4098 -0.0023772161537311304 -0.005198208255282507 0.0067468591461909665
3607 0.0022916393248262608 -0.003532606045511248 0.004997512079464506
4051 0.0031780751461326423 -0.003665330454461932 -0.008178757546707435
3393 0.003874087886750296 -0.0016382475535771832 -0.008891650298260721
1096 9.5871821640084e-05 -0.010770257315748166 -0.006404185373242694
1097 -0.0020090805380014293 1.3613627091849068e-05 -0.007960000493636259
4143 0.015018496506482126 0.015617278220926593 -0.014318851913825615
1109 0.0077958383964479286 0.004803004392431926 0.0014289996413870622
1100 -0.004639994883645237 -0.0012180662193832857 0.0016937173956386475
1098 0.003113725915185489 -0.0025299939757266318 -0.009112759847160156
1099 0.01334781760470844 -0.03139052038130994 0.012435577507025293
1102 -0.001547363989825254 0.001107501332527227 0.0001943968209099405
4077 0.05448677279970689 -0.012282805959278381 -0.02891955086905698
4075 0.004508089988066536 0.0026650792756586633 0.001476689175494568
4141 -0.00041907100447624704 0.0044476221884331 -0.005202107476968421
3694 0.0020493050880716324 0.009681484116285135 -0.010072088942557048
3696 -0.002024699996156008 0.015072416596195735 -0.012910144658181032
3695 0.009196431546165165 0.010145244597131833 -0.012315503573706239
3373 -0.0010993843266108787 -0.0042354079974870435 0.0032881523815594896
3375 -0.005361710243282281 -0.006316690693395323 0.006711375256647051
3236 -0.004080612574029729 2.6706686221045816e-05 0.010801212808810393
3235 -0.002382413841118063 0.0006378762456279372 0.0016804087964973795
3074 -0.011651245238284697 0.01163217335124722 0.007781722879570342
3073 -0.010615460137854379 0.0017246072385289385 0.0019264390504634171
4096 0.0037717682252071793 -0.006980318438223968 0.005959678641450474
3077 0.014650555861684221 -0.009173149505345967 -0.009289239449697981
3609 -0.0074050056901610395 -0.0002602924522200767 -0.014452836347377795
3278 0.004841020724740373 -0.006469525892995026 0.01316578363839606
3374 0.00595744780932163 0.0039843858558695445 0.0006121783643258919
3076 0.004520925284431608 0.005248771677405191 0.0025689599118538515
1101 -0.00846734590900234 0.011426461741559406 0.015449384982139646
2976 0.019388994644897496 -0.001194257605353092 -0.006201690053976588
2974 -0.0044486506050053585 -0.005866730250991403 0.0011615856867583155
4347 -0.01831228718886713 -0.00032609701210781596 0.022019290434886544
2975 -0.013831960947100845 -0.008707968759424348 0.0018846463744241542
4345 0.008161068007890394 0.003428066014050842 -0.0053406126937994534
4346 0.024908854542425925 0.010295674463134338 -0.015402412836194975
1105 -0.01841747398512576 -0.01870347676769963 0.0097876941463546
1103 -0.0036376554120159297 0.0024714811912015557 0.008411794301672874
3277 0.004121166052290646 -0.0012319341735010487 0.0067229132841678555
1107 -0.0010819885545561088 -0.0026458304495063393 -0.004775937851938274
1104 -0.023132356893357506 -0.016101548833303014 0.005347051354191331
3837 0.0014464074775047328 0.0019260404758630343 0.005809358909027868
3078 0.0235100429545097 0.016171134789513576 0.0006426253033747634
1110 -0.01233852399435705 0.034032453783253695 0.025876990103371623
1108 0.013259656539860349 -0.009187433619412964 -0.013531384287286854
1106 0.005341354659439407 0.018142597969580506 -0.000982795698201474
1218 -0.005524534220790684 -0.0042802619881193195 0.0024564601922516987
3163 -0.0015332499726542484 -0.00019784380726979562 -0.007037475442695392
3107 0.0011120331051831967 -0.015760991525274902 0.003957343141787549
4178 0.01541282445241224 0.0011057240333093214 0.013435649274650388
4223 0.01833921584519868 0.01634581202308864 0.005649555140749597
1619 0.004856373766605289 -0.009192747485672177 0.013096879750458307
3601 -0.0005688494636545711 -0.0026250614643948487 -0.0004431507469204761
3603 -0.011084829528701502 -0.008789944912577062 -0.00336672386540829
3602 -0.006921372313766723 0.022268208849274645 0.009742189250784036
4179 -0.003471427087978664 -0.002544053463765922 -0.005274190279646038
4222 0.0037426601095494915 -0.001363573818146866 -0.0040104915415314435
1620 -0.008983727369313228 0.0034868066334060883 -0.006753004228365807
522 -0.007220038664763079 -0.005619452293587182 -0.0035387501477429297
3682 -0.00444342787400247 -0.005098251868880391 -0.0006656006566823295
3684 -0.01379608506049659 -0.02184657884344577 -0.001419973245604396
4082 0.010176464544225147 -0.007328347144612917 -0.0008997125334537393
521 -0.023688914861837527 -0.011196959612351108 -0.0008822814223624978
517 -0.006149732143575089 0.003944484326089481 0.0008049465081357206
4059 -0.012650432927247308 -0.012848556000866141 0.0014561014170806198
4224 -0.019405436484815908 0.0036042343979905693 0.004420546789617071
2945 0.0015111469751351667 -0.016668487515854265 0.008352713497275677
523 0.0013408659391406159 -0.00047473639257466816 -0.002484538374434094
3588 -0.008031578352288989 0.0038668773899690175 -0.013166390650819187
3683 -0.011271934584245765 -0.020070112599077077 -0.008955974037500453
518 0.007768583052898306 -0.006920820981122413 0.00030873611848732135
3586 -0.0009746784752644108 0.004907643435739186 -0.002880168545693371
3004 -0.0024690511118759103 0.0068840854902899795 0.000850976508477724
3005 0.03429341386346563 0.0011023373114076478 0.0010419462772771476
3006 -0.02927599681130894 -0.012130063258230087 -0.025453129857120237
3587 -0.020354829283082684 0.008615135930296397 0.016144336700470302
2944 -0.0017822774243065565 -0.003977007112761249 0.0020042393974164566
2946 -0.024538326766228337 -0.013822506252794148 0.001171698446658888
3552 -0.004439236969831109 -0.014095524997831847 -0.005009185820347655
3551 -0.014219991576245324 0.023808093636278664 0.0008506692860860605
3157 -0.004410046115451861 -0.00017819566654474634 -0.0020839912514168295
3158 -0.042568294283068235 0.011899922531077365 0.007130229486615773
3159 -0.007820776370622524 -0.009184022588303456 -0.029002468386630002
3550 -0.005142100494968417 -0.005729312664325484 -0.004102182344167553
3951 -0.005584034937908919 -0.0018426223153932607 -0.00214844061922753
3950 0.006680454860403066 0.016028684996730543 0.009656010604694135
3989 -0.00987845123960052 0.002042554008221556 0.009883762684295808
3990 -0.0019031085079353287 0.008651823001151368 -0.006887535532797322
3988 0.0014709546313896734 0.0017824676924618843 0.0029605767524577566
1611 0.0006190999655610865 0.0031276925133711924 -0.0008712516800932779
1609 -0.004748839427657489 -0.0012677592423113117 0.001173949722433536
3333 0.01814315333577999 -0.015851415212760785 0.006572591906492889
3331 0.0037465279958131216 -0.005083670807097774 0.004892128370074557
3332 -0.009684276849688476 0.015179693303905869 -0.01602494065621727
4282 0.0030291565151327666 -0.00359672873783083 0.001064494753693883
2940 0.02386385343129818 0.01588288047664938 -0.009672406896422066
2939 0.019442195246433452 0.0006181327276238152 -0.0031496954535803895
1335 -0.004998045186135059 0.013244566952228842 0.0002806313315954606
4097 -0.00808103941047752 -0.01049990747171391 0.008766753564594503
3981 0.01783830184799499 0.027994496847468648 0.006106358636116895
3279 0.0013101608365591437 -0.0025692057887476156 0.0020477491229355257
4046 -0.02302296365462276 0.005786965228577716 -0.012011010422003877
3949 0.0005993763352929842 0.0045487706590411105 -0.0016740930021917025
3528 0.008028588203769785 -0.007417884990407683 0.007508250046245534
4215 -0.020525561101672023 0.002649401373681177 0.007778410341741628
4045 -0.0028759592541742693 -0.0023806977803639364 -0.004652196479217366
4047 0.004172496855558187 0.003362594543252986 0.004788411431020674
3827 -0.014049046462827374 0.01720612782986331 0.019197217961416643
3526 0.004548333290453429 -0.0008839288497506553 -0.005092178311593231
4213 -0.005757900435646638 0.001709963245822334 -4.366607205145461e-05
4214 0.0028927451112539366 -0.01954707709729433 -0.02041464744405363
3979 -0.002977602456225723 0.0027590502641479074 0.0061829302550031355
3980 0.014325775644354308 -0.017230825318732948 0.018058950124282002
3224 -0.010755999113417921 0.011706398083429706 -0.007823645550879405
3975 0.0038465336440961727 0.005253058423971989 -0.006528990734912836
3225 -0.0031112845757267633 -0.003857321997762587 0.009934247521207919
3223 0.0009873426794497079 0.0036097037213028756 -0.005283959435803242
3973 0.004483571902453707 0.00552799156211148 -0.0012255330522590476
3527 0.020709996014031493 -0.0062758777232639965 -0.012262713275214821
3974 0.014622536099840645 0.009216921822463874 0.0017114129161532668
3565 0.0016921262692587767 -0.0013154133832834092 -0.0015943115045319743
3567 -0.0025113946900708986 -0.008889353415300014 0.0013757352722696223
3566 -0.025411733036854633 -0.025320377686240556 0.0239991417187766
2938 0.006402109891576746 -0.0009789594794457224 0.0048371092099579035
1311 -0.01470734723755424 -0.01742452598190603 0.0018099339112369066
1308 -0.002832394450718078 0.007332631973359286 -0.005782617222681285
1310 -0.0023408938020006414 -0.0011145560144539142 -0.007188504798580728
1314 -0.00349207167139047 -0.01717963524265353 -0.005476644596305272
1318 -0.006464341339238233 0.0031921359219194913 0.007459529769260764
1317 -0.0003468204786396271 0.0028411609516837215 0.0035096564812491862
1312 -0.003957437030901008 -0.0008679749963218473 -0.0019442490229284579
1316 0.017914017201680323 -0.002888587146405253 -0.01281120834994999
1313 0.011137391116228825 -0.006540860800132371 -0.010047776787648547
1315 0.008157073650670846 0.013869804205900872 -0.00755091484673364
1319 -0.0034621730419896225 0.00010979574490635168 0.004274383051997208
1320 -0.002343369456172448 0.0007318259689163332 -0.0068961314567542375
2168 0.0054908319602602835 0.03193924819079755 0.026892262487957803
387 0.008150628717884226 -0.0010447252351160829 0.0049209459059267385
3498 0.0058800409554462495 0.011031811968013524 0.01780976491173139
2167 0.0018011930380668797 -0.005326044126523932 -0.004896067077385963
2169 0.011161565236270826 -0.03425913658039129 0.00030990080126686324
381 -0.001899684106261048 0.014402797491208949 0.0022637993206868065
380 -0.007258278626696261 0.007355581974717781 -0.001629602712868571
3900 0.0052556949677862105 0.014255342166336274 -0.02314091262635802
3899 0.006381157251727573 -0.009925941337078394 -0.00042777136824428356
382 0.0007621514272223769 -0.002346556245609258 -0.0013257573204691734
2774 0.008451885613382188 -0.01442704212293838 -0.005344396513039514
586 0.007421410874553519 0.006438552108313618 -0.021938453809275744
3898 0.0008948615787058542 0.008338070376153556 0.004113992657358847
385 0.008920013302830187 -0.023423407979601973 -0.011806749724895434
383 0.0022497611140377544 0.001008291546111061 0.0012235657680453084
4449 0.007810222572334847 -0.001397053825270598 0.004197801726762538
2775 -0.0019581088554228247 0.001920843344313263 -0.018284288888195666
3520 0.004585204435574126 -0.0017217022501528293 -0.008439796865845159
3521 -0.014958088075819841 0.025271082228479423 -0.001771868031711358
3522 0.019587379419885916 -0.006143971096117212 -0.016835004195834346
1557 0.0016899920308527637 -0.002498699071142575 0.003307002601262794
3583 0.0038958182303171543 -0.008437413062350362 0.001513661284879938
3368 0.0025272122589603797 0.008967795242971258 0.04159385720352362
3584 -0.006501977970638929 0.00269182229797673 -0.019546176173419125
1556 -0.002402340964109078 -0.003312587389063563 0.009978313636279842
1555 0.0016798014775334389 -0.0005626356635377319 0.00036438272681990364
3389 -0.002694812469705413 0.019352796649879683 -0.013404740809942582
3388 -0.007719010932187661 0.004587275824128638 -0.001246840126811397
3390 0.011888045851761751 0.009048464790999649 0.0007701740282865521
4448 0.005027855599657565 -0.014037304689850582 -0.0018727698990738454
4447 0.0004770099780297431 -0.0015723082160060023 0.003031450380586258
3210 0.006172724017218052 0.0027042209670750483 0.008266294527572523
3208 0.006011993716019841 0.0002896504692208958 0.003131027861507389
3209 0.00020507155975768197 -0.005800405704781517 0.003079331785601586
3305 -0.014763477669862989 -0.0024258461138112054 0.02711236684738068
3758 0.0074857961513795975 0.007870593923033322 0.0020776591299468575
3757 0.0028770629773744085 0.0006930079452161288 -0.004506848167117552
1706 0.011882521999725164 -0.029173555024516237 0.007827924577603881
2773 0.004087407603881981 -0.0003412863324880302 -0.002647506725482206
386 0.016187716394135018 0.0034960830760966274 -0.004078535141531756
1705 -0.00208831810402619 0.0016709359456192983 0.00520405253951365
3367 0.0007253681249191148 0.0007934145968966155 -0.0010405422610329379
3369 0.011153581335188073 0.0010149896944702103 -0.03941917260283062
384 0.00932409853655247 0.008276652017549024 0.011348544820903708
3759 0.00911706396509068 0.017093374470153824 -0.023438230755945064
4088 -0.051733284571939174 0.012236675749122 0.03776768047325063
3628 -0.004064535522415984 0.008080498793106697 0.0013915722396663267
3630 0.0036689860472515477 -0.011719200397348771 0.004094549728861158
3164 -0.004675223845467694 -0.008829912421057304 0.007253608680521316
3686 0.00025355220532936374 0.028953412598440895 -0.029337241187999456
1191 0.010751911467377912 0.018809163712353912 -0.007160339504840756
1188 0.004694078232832896 0.0009776536821230848 0.0022455423717676315
1323 0.0036845306224844543 -0.004009079862319896 0.00818135268134104
1322 -0.0006453817451550246 0.0007462823346545579 -0.001431374661077439
4212 -0.00023881353830304574 0.00019607760721869984 -0.003568584027055718
3687 -0.014735258296826155 -0.00535630450387611 0.031808614095335475
4131 0.004026648640175121 -0.0054695302272512025 -0.0011086740633336927
3025 -0.007418294035603138 -0.0034152252488490074 0.0042576536380759065
4130 0.0040230664525959725 -0.00814967589050391 0.03350513311838837
2112 0.003610291551106856 0.0035659605815445694 -0.005453782406711629
4210 0.0015292685053883866 0.0008049117300847141 -0.0035420451309400186
1189 0.0029301726509279747 0.013729691434675326 0.014176371302453092
3655 0.005648853141112718 0.0016823197661145677 -0.0055133584393518426
4129 0.004339497962176997 -0.0038701079168554724 0.0008972640619008628
3026 0.001173628811515485 0.003040438116168991 -0.0011232769855600547
1321 -0.0014806043889069413 -0.018925726050208664 0.023954940090862676
1324 0.012536052946078206 0.013826454323249101 -0.010638504319451804
1770 0.004061143981708515 -6.978715581711328e-05 0.002277639169771457
1768 0.005612194262468946 0.002204016337171078 0.0005581943189412258
1769 0.0017457533042492103 0.02835079683750063 -0.00415263626243455
2110 0.0027458633394160164 0.001881287405504595 -0.0010057353700304312
3356 0.0016230738318981414 -0.002113587075570831 -0.006385184103660509
3355 -0.00039656802962874854 -0.004419696063117231 -0.0013319725377706633
3357 0.0027193367152713636 -0.008857915267109563 0.000553920039966537
4376 0.02672887434115315 0.02291876688881899 -0.012094588966287578
4375 0.0020577715236291903 -0.008160658124703905 -0.0005794202594411486
4377 0.020949533031489165 -0.0050141057241653905 0.007161052560388139
4243 0.0007496050844867867 0.009957214275128343 0.005186025950783587
2111 -0.019612503949050765 0.0012566743383161218 0.02262707600215516
4244 0.013942875068320116 0.00013267602480437774 0.02066422206575651
3685 -0.0030868022213773982 0.0005026838866698404 0.001267657609988965
3656 0.005740518222051945 0.0012239518552191891 -0.010854985309142508
3983 -0.004225601399669726 -0.0038109539033996317 0.005843404257036034
3982 -0.006381756184337503 0.0001608360654350986 0.0016438731031270394
3459 0.020058195613748678 0.003208879817032961 -0.0167121488711835
388 -0.018478241317851002 -0.003885002375952262 -0.013601117925439127
1095 -6.611826264168152e-05 0.012115645858615135 -0.0007102604712437095
3984 0.003499343020767804 -0.015639673641770765 0.019788667844704795
4318 -0.003128094028371822 -0.0036376953557129767 -0.0022809455974950894
3335 -0.005480914769886313 0.019278423247523532 0.00696612754903932
4319 -0.024620243077078042 -0.019850804252837445 0.011609364064431778
3304 3.967821528219685e-05 0.0010282954608996945 -0.007219387085340559
4320 -0.016998032034881594 -0.0008343049060110491 0.018140043827531788
3733 -0.0013300098003056482 -0.005485117454573964 0.006842090206660523
3735 -0.009249553949723124 0.0002122044098132738 0.02774738850350437
3734 0.0021161332639429305 -0.013275720825045452 -0.002852405815623288
3306 -0.0009480340322818272 -0.0018323207314565858 0.005368928182842365
3336 -0.004522969685290733 -0.018227913952855487 -0.005502040701863704
4181 0.008145263439004053 0.0016024579171670071 0.023913350287638677
4180 0.001050285602855378 -0.0038564330030154644 0.0014642297606091105
3749 -0.026516516454248396 0.01308483295989923 -0.015975695510345073
3594 0.006643975281150904 -0.01998994087439751 -0.013602997227563264
3750 -0.0003219404492623344 0.006460970855544478 -0.0056649129901630265
3748 0.0029738151994067917 0.0022991369878601485 -0.0001563237452694847
2811 0.012126527509887233 0.004618772489564498 -0.017963037684446567
2809 -0.001889874904957768 0.004475095881828001 0.005172246559698809
2810 -0.011737330479935436 -0.017666615796351925 -0.020086811431009724
3480 0.007480385714964641 0.0051013451199349545 0.010240909334648352
3478 -0.0010997604567015793 0.0014491351989786149 -0.0010640579904605538
4079 0.005142937182104848 -0.011091400020594028 -0.006816952277821174
2669 0.00796328265890076 -0.0033630304941850717 0.012930329600331867
2668 0.002466748594307505 -0.0024597881294793436 -0.0025724383272981155
2670 -0.006130552638181131 0.0033951840871606323 -0.018531686865615918
4078 0.007374081694711168 0.0029843175438667743 0.004867156547037891
4080 0.002658647027652479 -0.005535422474751751 -0.005120279216394584
4182 -0.00824873598318408 0.002237706686108579 -0.0003609292745541248
3785 -0.019369729522410794 0.015485236875727167 0.021351906869481147
3103 -0.0034622658167987185 0.0019564424240864717 0.005566360430861561
3104 -0.025665481178920757 -0.002805351797526117 -0.004719595740403837
3105 -0.02717456731783061 0.03247918146310375 -0.0004811519787333978
3334 0.004034037623448153 0.0019306620146254103 0.0007199497038752229
4014 -0.00074483623800193 0.0007465109021279984 -0.015296452213375257
4486 0.0024189915585910208 -0.002857419612980644 0.0027688271729504094
4487 -0.002268390226277777 0.0048876987304138 0.009090727514614124
4488 -0.005097792062048155 -0.0006361502460480521 0.005834540496888166
4012 0.005232973348079744 -0.007726359598739109 -0.0026350282062606177
4013 0.012581679477902508 -0.0031127142669402615 0.0002319002147587439
4200 0.018532088197651564 0.009498292431321127 0.021244380441000056
3101 -0.003761081941964652 -2.3252391124197022e-05 -0.004775099538064919
4198 0.005201733990604952 0.0028423085157502446 0.0010050216247230244
3263 0.03788132758057636 -0.033101266967088504 0.00806620648656719
3616 0.001883008165521449 0.006053728799284861 0.0047978260345381335
1190 0.0027729491577624587 0.0011622556808891197 -0.0073502187061218055
1192 -0.003629167615430099 -0.008358514536868767 0.0055676912881048105
1193 0.003075147817903352 -0.002728713179987106 0.0023210054852461732
1196 0.007322857009155295 -0.0028161317171682553 0.02869162397959596
1199 -0.0016385146107803616 -0.00036867625347794796 0.004934514659298555
1197 -0.0036018395957728073 -0.004703899848551438 0.0015344070348282078
1195 -0.0005625331492413066 -0.0015737883724792137 -0.0021274827474969523
1093 0.00023908621023908944 0.007606906643801532 -0.017920058496751212
3027 -0.011270198910685723 -0.005762068219481107 -0.0026735239259674704
3680 0.009940026121934419 -0.010043346917339806 -0.02249304797405163
3679 0.002633004758848463 -0.004582420315554847 -0.0005857351542155223
3681 0.01326392405482171 0.00351941261059564 0.011686625805406463
3153 0.029712768827809582 -0.017848190209324124 -0.001153719713378561
1187 0.008812106244927561 -0.0004108033143125309 -0.007177714925709481
3080 0.007072578623324428 -0.007995010848269342 0.0018074164057687492
3079 0.004435342745053547 -0.0004098324402771684 0.0040687653290051844
1186 0.0331567488821564 -0.0042338646169102715 -0.016166963764041895
3081 0.0058496232652815615 0.0034497810307530783 -0.0026451777763455394
3100 -0.0035739971839277933 -0.00010329650668089751 -0.004136141219516344
1200 0.0072144308013884625 -0.015475343974608369 0.0022167560590011484
3611 -0.00728952162537945 0.008521243557132435 0.016384662458837802
3102 -0.0031496953861170902 0.0014314538891064895 -0.0033582359639809122
3612 -0.007413020837343805 0.011414996898953552 -0.014699380236349133
3610 -0.001980946255561097 0.0006117981611468424 -0.0005450687747690855
3873 0.014097675611135823 -0.0042225697849019765 -0.016669795860889073
3577 0.0017662470507047482 -0.0019913117102203933 0.004139039164626964
3579 0.03055009944036149 0.015502489054930837 -0.004546450210174432
4373 -0.021186202898443352 -0.023784304395302484 -0.0032224915854289194
3872 0.012579180841308733 -0.0032833735353202075 -0.016507743849346224
3871 0.0018931796317973055 0.005136802896389257 0.004287765178276041
3578 0.007132624411462099 -0.004078505771199749 -0.001101189178710918
3922 -0.001010603108430677 -0.005515172623501477 0.0013816538893144138
3924 0.011270926662341113 0.015654942755581828 -0.0015787658790631328
3923 -0.026344297053953192 -0.009689217326565185 0.016294158746877698
1355 0.0035262076930802906 -0.005089400837064591 0.005677558557725228
1356 0.014439682468367873 -0.014137184591521053 0.014166979832952396
1359 0.0071602755646009795 0.005648738965388568 0.011082207069387572
1360 -0.002826764347635249 -0.011383162835031088 -0.021505355897853618
1358 0.002904481937553544 0.007214263594703493 0.0021947903128647127
1361 0.025333216074934873 0.02051579723171154 0.009444449830205799
963 -0.0030032023137084637 -0.002561765116840991 0.003318735260119258
3468 -0.016658055460073668 0.010896357062955416 0.008164097793631503
3496 0.00019512690010327542 0.008256216297880323 -0.004444035174621025
3558 -0.005058829275490547 0.007588554611984119 -0.013779951067613807
843 0.0023304618802421416 0.010574606329569114 -0.013392358895747273
3557 -0.008317600620087474 -0.011931296885042105 0.009492172045035874
2146 0.002959806155467436 0.008827265496326639 0.0035192545785753663
520 0.003951640838514211 0.010834848658263565 -0.005333518676643885
3716 -0.0027901436513216096 -0.006369522115069829 0.0045590353734138965
3717 -0.0022924300210009603 -0.012230285981635789 -0.019609764769231004
3715 -0.003287694762409907 -0.006684935975631138 0.0069147905857405035
3150 0.001261457515496842 -0.03725738521656197 0.010115624989869407
3556 -9.292647964531748e-05 -0.005619728153018471 -0.00038038198114123873
2181 0.00513074913429836 0.012938712679529455 -0.004957403298227927
2180 0.01306913295143107 0.026340664459008595 -0.019541322730010465
2179 -0.0034101825322312043 -0.0014028259783330848 0.002203399107503697
3148 0.0036598496895076695 -0.006803734120906892 -0.00030797268862444306
1219 -0.01345659567290775 0.0011107121305740204 -0.005963685564371772
3037 -0.0007510189366978207 -0.00172355614492074 -0.0009193947181846394
3038 0.005141997402740776 -0.01332762636088635 0.00957855737858069
4199 0.017554594318923002 0.005878116180449866 0.00960779315620603
3039 0.01595106078111107 -0.011831789734655351 0.014631241976218639
3441 0.008464584020239231 -0.009811658317748783 0.0021384995843947156
3439 0.003605545527899962 -0.005823601574161348 -0.006070729138985865
4403 -0.005765629787950783 0.012310358736518666 0.00038153258942089444
4402 0.004707968823070364 -0.0077701480152754954 0.0026832861042253775
4122 -0.0007370541393322699 0.009346372459107181 -0.0014782720647299916
4120 0.002765296681253679 -0.004504850073936881 -0.0024503165404745533
4404 0.0026488944174299926 0.002122096405296667 0.008962233436817872
4121 0.012963311887120023 -0.006198580519178165 0.005146627029318263
3166 -0.004283042762451108 0.0019651479882289336 0.00023631837478795147
4184 0.0034900054308074652 0.00048195481804790913 0.003570943033657654
3671 0.005403340942519855 0.005551849134578985 -0.0019097604824563081
3672 0.007287489875871396 0.007443208331918891 -0.0019865499444505284
3670 0.002846047740933457 0.0022302745602711983 -0.0020055796615328827
3167 -0.003990245496720098 0.0007858832107040518 -0.007451332964569474
4183 0.004737729507411802 0.0021057093447998184 0.00022341418999791441
3643 0.00012173112681605159 -0.004711064229717554 -0.0011220983993939998
3644 0.022138160874509205 -0.012076368302247497 0.03131781369446888
4185 -0.00310048566258805 0.0036918774606882355 -0.0017114672429621313
3440 -0.007866217863220167 0.006053751455197858 -0.008068987675132554
3168 -0.007682798447296065 -0.0020486895771855626 -0.0075192303472382165
3456 -0.015351577524859673 -0.006219334638261529 0.002811253864652539
3149 -0.01571308313879707 -0.01102068241536342 0.016758882650608403
3645 -0.007411392025708751 -0.008898196674076196 0.0004907564525327921
1837 -0.0020320720309994398 0.003925669080544402 -0.0017495647660160888
3995 0.005850242114134507 0.01540083855575014 0.009530544104542425
4016 0.022502712286086683 -0.0021634875472991166 0.011767623153908694
1465 -0.008014308121366371 0.01775462281915038 0.012033570537209277
1463 0.004765198373949471 -0.00019390310028619622 -0.0016091600832580423
1466 -0.014011544266453029 -0.021107202578658297 -0.02858089518199654
1464 0.018549156938229866 0.008809141791794163 -0.002638010903843244
3996 -0.009450531872244552 0.011768667116877999 0.004474337608038868
3454 -0.00427282226375532 -0.006232959738562945 0.0038873843293802703
3455 0.002012561183042059 -0.004734725968780633 0.0027396243927040533
4062 -0.007324156800831899 0.023112157982723477 -0.029604612978179085
3515 0.008239044431252405 -0.004237708879798918 0.0091561675436052
3516 0.002374907527272312 0.0018365889311992448 -0.021647722345237035
3514 0.004084748601526384 -0.0002921349791308137 0.00040418748598180663
4015 -0.0024953949932352017 0.004598150501710823 -0.00040670565157834357
3732 0.0021971159374483077 0.010247381502082787 -0.01609131180116168
4060 -0.003410039388042849 -0.0016715135956107483 -0.0008865868265829629
3730 0.00818134453156026 0.004170425426830926 -0.006257521074460542
1364 0.007805581591903691 -0.00374526929299635 0.0001006151708294916
1352 0.004129953100863372 0.003394116780798571 -0.008339913425666652
3731 0.008739958654549417 0.007772974808428526 -0.016046808830270362
1357 -0.006811910457502504 0.0028114842243535756 0.0059394396592163555
1353 0.0011094356439818787 0.004153801710315908 0.001687688717527083
1354 0.0013098665267519743 -0.01967849250475511 -0.01916896792259273
4061 0.023449616904585024 0.0254944179261869 0.010448498721036936
1365 -0.0024255079898720887 -0.004415529969461125 0.0026594670400889244
1351 -0.018428768542006892 0.0070514962835948845 0.011472115581147187
3337 0.0009321160585079811 0.0008217806243368611 -0.00048042135519205456
3338 0.0013582440260534484 0.0009497820141391421 0.00351981446694733
3339 -0.00021124369256747514 0.009056239192975836 0.01644974724513579
4361 0.01012860056162928 0.001383117026786862 -0.003820129243799365
4362 -0.0034639761432740785 0.004665129882199438 0.001014411718987352
4360 0.004168279610738732 -0.0037236216696232833 0.0012523739032495268
1362 0.004389221007939867 -0.0010711073900705967 0.004774446482273575
1363 0.003695534559060878 -0.018638170085308305 0.035677259465972
2943 0.008329033428499779 0.0030195125393559187 -0.000223812004106573
3467 -0.007811967364739038 -0.012444580573653446 0.01796869461096364
3466 0.002059767792277282 -0.003089779483036702 0.0050294617906918694
3617 0.02251284168402348 -0.0017009030224681427 0.0055401583586613574
971 0.009083824292364881 0.005639567854481297 -0.023692705301689647
3536 -0.006501479652160906 -0.005221177694184932 0.005409016901803852
2886 0.012180007534252558 0.0038717869197605497 -0.0008109207680491642
263 0.003849530679938163 -0.003670854908417967 0.0005842173661384416
1149 -0.011176289372670676 0.012370325183007853 -0.008232105880036726
4283 0.0017395509228834416 0.004753416390186656 -0.003093000480325328
584 0.0005988964024218539 -0.004958202758066998 -0.004397889672723204
3574 -0.0019062424898307572 0.005114972268529707 0.003203775395686492
3633 0.014406209510677902 0.006543442792463913 -0.012595914232773816
844 -0.011050826744041072 -0.024382453145627238 -0.017379576605689406
1787 -0.006555280301766013 0.001979636094157189 -0.007875840279036731
4300 0.003824505711836339 0.003992008871798755 0.004310213873996682
4301 0.00713583984314359 -0.0004457421215449278 0.008646528012543094
3642 -0.0030334761877218877 -0.010463758279548159 0.008218882315813563
4024 0.0002510868405460994 5.688384801539534e-05 0.0011027599062437064
4025 0.0010251284489241977 -0.0011389988867023756 -0.0033367601150251867
3575 -0.0022385906095500575 0.0038115878444923575 0.0007433227705112666
4026 0.008471149504017126 0.004262688866448454 0.0019322968682254334
3641 0.0073360773324962015 -0.027201623166634506 -0.02676834863565021
3640 -0.005009924526872212 0.0002570995334880015 0.002738413843174867
3535 -0.0015045881597686257 0.0002632509032707086 -0.0002575052309256059
4302 0.00042937980807884355 0.015085142946397762 -0.02172700818283599
3884 0.00857163910324992 -0.027260749589260554 -0.012869827172935125
4264 -0.0019586031894184286 -0.004910559471194548 -0.0030870335035889773
4265 0.008348044909076773 0.004614065661715399 0.01190793447049419
3216 0.006330848695493829 0.006180498878127453 -0.010464925974719924
3214 -0.0005969580135438074 -0.0021045713345750803 0.006256265492914626
1788 0.0026394142972680263 0.006824015472315578 0.006521881015150624
4266 -0.02760672900978836 0.016854121528232853 0.0006406440193706338
1786 -0.0016245985354514125 -0.002335752260536296 0.0030212891802399453
1028 -0.004650242556923857 -0.0034768967161990104 -0.01058437443317022
3537 0.0020058566647540087 0.002036449929191214 -0.0006326297492975446
1025 -0.008931848149592348 -0.0020678592791142903 -0.00037137660194328155
1023 -0.0037686840914657603 -0.00426246030301366 -0.0004308361746431168
1026 -0.00794568144339828 0.013056761993381604 0.003681214923642072
1024 -0.0056796165828836365 0.0045325828454129535 -0.013709271273921436
1027 0.0011871587447991878 -0.0044291425292099125 -0.0006502664122999904
1030 -0.007328206652416621 -0.01725079720586187 0.003869648623671635
3215 0.0024655783775049053 0.0014374443451472651 -0.0006056440449657445
1022 -0.006557364125247879 0.0078248441050073 -0.004642624610092568
3947 0.013854079886787107 0.006066512380125212 -0.027706878626759034
3946 0.0008045183656567695 0.002200967112409514 -0.0035833139551919037
3948 -0.02555136533021452 -0.0024393651345503285 -0.010950643171572847
1021 -0.0009762511825553397 0.02155376766344101 -0.00703277384251605
3740 0.012272195980917352 -0.007788261262430679 0.010400239162002478
3879 -0.003270634711302929 -0.03700321384193657 -0.019820338303577646
3392 0.0015522092786372692 0.004718205524652869 0.009646879977729651
3097 -0.002109831826490718 0.004212468672526883 0.0001707618846214158
3098 0.000962643725506314 0.0006953621263589011 0.00038543353779574166
1029 -0.006489238408627822 0.015380689059844643 -0.013688268636848857
3230 0.011797188682133095 -0.0043519690374195594 0.004856905460939
3860 -0.010977787660679944 0.003011249521026483 0.00241171751294593
3861 0.0011690565594112009 -0.010832042799737667 -1.9417091479846997e-05
3859 -0.0035282578462904842 -0.002652448996511286 -0.0045811420525162065
3099 0.0030271890370343717 0.006473017802276766 0.013257707096221543
4084 -0.00432326389335318 0.00971697272186573 0.0005029183206808065
3836 -0.011859155461003823 0.005513969294160906 0.005306560516138358
3835 0.0033716526589305977 0.0016604172364092758 -0.001501884904681565
3721 0.001746581823986496 -0.0002507114996845513 0.004763030075605654
3723 -0.00436629452474273 -0.0054149673666042805 -0.007412669165983733
3116 0.010742010174644795 0.005786619946588157 0.012039718785928733
3893 0.004084039729679516 -0.015132705207720957 0.0024684721164237805
4063 0.00747169388073022 -0.003679108397099887 0.0007169108391757918
4065 0.026521515872138496 -0.013999093819228998 0.015935587969497875
3722 -0.005543452106492535 0.007759765569418236 0.007339736470747356
3293 0.032449909896737614 0.003241923756516968 0.008215174257085182
3292 0.005455289159163349 -0.0018000882711660864 0.002665480340830754
4064 0.012911104717090803 -0.009149291120623836 0.009769511134777266
4469 0.0002167666477090843 -0.013934023063631503 -0.0003681902156418943
4468 -0.0004906497401405441 0.002641084359551754 -0.001741514201178177
3667 -0.0012925943942889342 -0.0022954610952054533 0.0001276680055641581
4033 -0.0016098770709946314 0.004836232652056046 0.0015646571980780545
4034 0.009733828180036522 0.0038204481663874027 -0.011637369285770216
3878 -0.009938897088083248 -0.018891683074846396 -0.01898148754036925
3710 0.004771630560441876 0.01089041057335406 0.016712741763809078
2991 0.00011493268117048248 -0.0063840241544241465 0.008114370816310144
2990 -0.0022449193811243796 0.0011716644311544494 0.0007667196584081907
2989 -0.0009097821854025114 0.0008720533805382355 0.006700091708138389
3709 -0.005431496819535687 -0.002911868428198599 -0.0021444352285718013
3711 -0.002092095368105035 -0.003069497448563593 -0.02253153410306623
3892 0.006949111733471466 -0.003835377251980497 -0.0015019627377230518
3894 0.0012807775193397575 -0.001191074343190669 -0.005627347121268801
3229 -0.000529972028882502 0.001947411526598828 -0.0021908752858410797
3231 -0.017579427939636218 0.004081398025835023 -0.01582010288729313
4035 0.0020911320719605234 -9.402528162787966e-05 0.012093772410862002
3294 0.006015383652026687 -0.015311043577085206 -0.014061130312513078
4470 -0.0031517496406542438 0.009637487282839323 0.009056227016888406
4313 0.00017180321457988418 -2.4723755238195198e-05 0.003891228063206741
3912 0.006022147034351013 -0.005417290272637391 -0.008861508779976832
3778 -0.001771734490027497 0.003071140844007592 0.0047577965768917695
3780 0.010711364597119966 -0.014347190319066042 0.0074268055035377105
3779 -0.004810364715494001 0.005654577019861942 0.003753442196435204
3413 -0.007008461884166183 0.008546031641840196 0.012145895091100993
1381 -0.011667395723604153 -6.987099427790818e-05 0.008760820390639766
4380 0.015059114546203086 0.01237572293220603 0.0029587694816193954
1227 0.008215005478936572 -0.0020478301143013102 0.0026727636766681723
2318 0.010240141729103225 -0.011547158802854784 0.010057101687812726
967 -0.0029692640951555225 -0.0036591557613736858 0.007496220067524269
3976 0.001165957081715008 0.00012118610236477554 -0.010635611223604647
3977 -0.00041020346164185743 -0.004781146629777494 -0.010653236003034337
3978 -0.0049608545746169 0.015573890460240264 -0.0023041826852704377
3674 0.011499777363058654 -0.016127501454391693 0.008838347667080824
1031 -0.010816030154949127 0.014005029885171305 -0.028600944379776862
1032 2.1616491427487863e-05 0.007886837647481446 0.005957785645477994
1034 -0.0012652124479715727 0.0026264836327327223 -0.007977393568862094
3391 -0.0014098562519416387 0.0019322983396357772 0.0025018524788672537
1035 -0.0032746252612494376 0.0019422588426060113 -0.011203316049259128
4087 0.004346327760277911 0.006464021365275353 0.007737350152389538
4089 0.03902094451127886 0.005673002378915537 -0.018163349913449037
3410 0.008624062428042914 0.022738052892573406 0.018140293917867655
3206 0.016732122224675784 0.008192806868320546 -0.008748145827836541
1610 -0.01131306622929436 0.0007555132067695326 0.0036813754199901865
4132 -0.0030733675332856583 0.0006314241455564698 0.0013789810778211224
4133 -0.015604909489932768 -0.006037784819294539 -0.011512580451733105
3411 -0.02788504637168469 0.0016814303828669806 -0.006992381550291892
3207 0.00701625138915365 0.02134779818848366 -0.0003708888610155519
3629 0.0017113390652650508 0.028353760965216326 -0.002794938996232521
1033 -0.014708356942541393 -0.01857104979563154 -9.981987933832174e-05
2970 -0.0027025664397385164 0.0049647118013171 -0.0018166470883881078
2969 -0.012982401770300852 0.011948569295909746 -0.004967601750313849
2968 0.0016401458469996468 0.004276871632401405 -0.0009269158723829124
4168 -0.002895003828829227 -0.006623982467947748 0.0019777676601866355
4169 0.0005435608344240358 -0.0027891688768931296 0.016491251363018208
4328 0.004453417532915971 0.005882489277015402 0.0020253821628803985
4134 0.027041378484301007 -0.011557346569132187 -0.021867795108906074
2724 -0.0012019344511412246 -0.008732572774831634 0.00048247668696340084
2722 0.0014474132626429049 -0.003485819753039446 0.0018107558756193134
3205 0.00615419539793442 -0.007786022509447654 -0.0039036241782207963
4391 -0.009121962381704833 -0.004971827110404619 -0.008920804842267168
4390 -0.004996579322481909 0.0014102419772857365 0.00014712319687496225
4392 -0.009454840018650332 -0.005426551506397381 -0.005291363809175272
3409 -0.0018930889893020606 0.008549081088190958 -0.00029474517931436106
4085 -0.0014128755591980436 0.012023633309779907 0.00878174888765775
3452 -0.008223046932351753 -0.0010489258413929527 0.023351626972201563
4262 -0.009345140869861922 -0.004490089351823328 -0.002420043454678361
3114 -0.01817450922549854 -0.0032193285628172325 -0.0024909748633219586
3287 0.016006033114748717 0.004285289301496853 -0.0124682798325256
3288 0.0018209556372697604 0.011662631633954507 -0.02705756278533738
4298 -0.015479931862969198 -0.00496129403991536 0.005109897825702021
4297 -0.003160107777654651 -0.002325154334063099 -0.003332599256310826
3264 0.013657088397003792 -0.0057055346597207155 -0.016376579294925763
2941 0.0005333898366825064 0.002177079526819056 0.0022927940144097368
4284 0.010436094566592433 -0.016626818594161086 0.00043093100112533893
3618 -0.007410575257130228 -0.002851171714577984 0.019327811550448083
4378 0.0028297663547687483 -0.005145713321492255 0.003518934618350394
3675 -0.009839415312460366 -0.008180528278563625 0.03764610812769531
3180 0.003067770138785858 -0.012781953329199795 -0.0012094780091801728
3178 -0.004537247654671482 -0.010352504509849838 0.0022271796519941806
2942 -0.0023790748830008687 0.0005786983103121606 0.000642047128495323
3673 -0.0013681276524437312 -0.0027041136581653566 -0.0023938624103342584
968 -0.006781984782613664 0.001551171697135106 -0.0028472816092425363
868 0.016556289106743807 0.026480912974971814 -0.0050363775969350915
1369 -0.011532275689942835 0.007300372762564836 -0.015364331416579847
3431 -0.0012010666080564374 0.003459626514749381 0.02538495206889264
4052 0.0093709860128296 -0.002796995704665696 0.017239192105162827
420 -0.011407130309710292 0.011410875450005815 0.016718120553740626
3414 0.019539906896974206 -0.008121703879744244 0.0002492447054523631
3801 0.02097228264741939 0.006727196068326149 -0.019134033066737638
1408 -0.01871750990924034 0.006764576042628265 0.008046778702045242
939 -0.024498639462325635 -0.008386018389161516 -0.018699449257350263
934 0.004649501916161372 -0.006052729716036889 -0.0014924245886314014
931 0.0012773320097004173 0.018000636875185664 0.004726570179990231
932 0.0037008288774086503 0.0015944081075447774 -0.005368726240585951
936 0.006660804826707361 0.01454785868152666 0.006729171311497445
935 0.00526833086033075 0.002636749327892334 -0.00603248824578862
933 0.0044920239916355015 0.0018387099612389441 -0.00890135507286883
945 -0.0005295623821913964 0.0014641979491553587 -0.004946421685889477
943 0.001058860592140567 0.016044821208152843 -0.01923144816595165
940 0.005947147664577613 -0.006513311536398833 0.0041073830931631404
937 0.0065182729783910655 1.1119902025568508e-05 -0.0021466812632784456
938 0.003263140280931516 -0.010774723409381638 -0.005084139265611533
944 -0.002718807983912588 -0.0018498178542972117 0.008609257373936351
942 0.006216128631014707 0.0039693058516032985 -0.001289040078278802
1396 -0.008072457821284741 -0.008490913045086767 0.009784370057493231
1399 0.007820337076818767 0.0012952055537931047 0.014774758042135686
1410 -0.0028335211207046684 0.0013262160521042945 -0.029161137252913423
1409 -0.003491114641481155 0.004694574228303379 -0.0008169189090134923
1397 -0.0005242612080781734 0.00576134581116335 -0.0023514590108853024
1398 0.0018473361220694966 -0.0006706283607438239 0.0005000539924134818
1400 0.0023659677621329423 -0.00248231289789503 0.0002726112723966608
1407 0.002047408623508794 0.005293716976632082 -0.0007457305158145802
1402 0.006666551463658236 -0.002583259823519407 0.002358726581033644
1404 -0.004619297433716806 0.004134516336230699 -0.009332254203575861
1406 0.02138334149398167 -0.011849898669305981 0.009954631123042349
1403 0.009570299878263034 -0.0023766056175650104 0.00526760583837553
1401 0.0013441726065913143 -0.01943372455126865 0.006074152429227232
941 -0.01407283367272537 0.006539137859493185 0.03029208151191854

Bonds

1 2 181 182
2 2 183 184
3 3 183 185
4 6 183 192
5 2 185 186
6 4 185 187
7 6 185 194
8 2 194 195
9 2 188 189
10 2 188 190
11 2 188 191
12 5 187 188
13 4 187 192
14 3 182 183
15 3 182 194
16 6 182 187
17 2 192 193
18 3 192 194
19 2 824 825
20 2 811 812
21 2 196 197
22 3 197 198
23 3 197 209
24 6 197 202
25 2 198 199
26 3 198 200
27 6 198 207
28 3 812 813
29 3 812 824
30 6 812 817
31 2 815 816
32 4 815 817
33 6 815 824
34 2 813 814
35 3 813 815
36 6 813 822
37 2 209 210
38 2 822 823
39 3 822 824
40 2 818 819
41 2 818 820
42 2 818 821
43 5 817 818
44 4 817 822
45 2 207 208
46 3 207 209
47 5 202 203
48 4 202 207
49 1 2812 2813
50 1 2812 2814
51 1 2194 2195
52 1 2194 2196
53 1 2422 2423
54 1 2422 2424
55 1 1915 1916
56 1 1915 1917
57 1 2806 2807
58 1 2806 2808
59 1 2221 2222
60 1 2221 2223
61 1 2296 2297
62 1 2296 2298
63 1 2392 2393
64 1 2392 2394
65 1 2053 2054
66 1 2053 2055
67 1 2779 2780
68 1 2779 2781
69 1 2107 2108
70 1 2107 2109
71 1 1633 1634
72 1 1633 1635
73 1 2080 2081
74 1 2080 2082
75 1 2428 2429
76 1 2428 2430
77 5 37 38
78 4 37 42
79 2 38 39
80 2 38 40
81 2 38 41
82 2 42 43
83 3 42 44
84 2 44 45
85 2 35 36
86 4 35 37
87 6 35 44
88 1 1870 1871
89 1 1870 1872
90 3 32 33
91 3 32 44
92 6 32 37
93 2 33 34
94 3 33 35
95 6 33 42
96 2 31 32
97 1 1771 1772
98 1 1771 1773
99 1 1663 1664
100 1 1663 1665
101 1 2758 2759
102 1 2758 2760
103 2 134 135
104 3 122 123
105 3 122 134
106 6 122 127
107 5 172 173
108 4 172 177
109 1 2893 2894
110 1 2893 2895
111 2 121 122
112 2 203 204
113 2 203 205
114 2 203 206
115 1 2578 2579
116 1 2578 2580
117 1 2089 2090
118 1 2089 2091
119 1 2767 2768
120 1 2767 2769
121 1 2455 2456
122 1 2455 2457
123 1 1930 1931
124 1 1930 1932
125 1 1891 1892
126 1 1891 1893
127 1 2650 2651
128 1 2650 2652
129 1 2656 2657
130 1 2656 2658
131 1 2614 2615
132 1 2614 2616
133 1 1951 1952
134 1 1951 1953
135 1 1645 1646
136 1 1645 1647
137 1 1687 1688
138 1 1687 1689
139 1 2341 2342
140 1 2341 2343
141 1 1831 1832
142 1 1831 1833
143 1 2338 2339
144 1 2338 2340
145 1 2689 2690
146 1 2689 2691
147 1 2401 2402
148 1 2401 2403
149 1 2419 2420
150 1 2419 2421
151 2 1373 1374
152 2 1373 1375
153 2 1373 1376
154 1 2833 2834
155 1 2833 2835
156 2 1370 1371
157 4 1370 1372
158 6 1370 1379
159 5 1372 1373
160 4 1372 1377
161 2 1368 1369
162 3 1368 1370
163 6 1368 1377
164 1 3067 3068
165 1 3067 3069
166 2 1377 1378
167 3 1377 1379
168 2 1379 1380
169 2 983 984
170 2 983 985
171 2 983 986
172 5 982 983
173 4 982 987
174 2 980 981
175 4 980 982
176 6 980 989
177 2 989 990
178 2 987 988
179 3 987 989
180 3 977 978
181 3 977 989
182 6 977 982
183 2 978 979
184 3 978 980
185 6 978 987
186 2 1268 1269
187 2 1268 1270
188 2 1268 1271
189 1 4441 4442
190 1 4441 4443
191 2 1454 1455
192 1 2857 2858
193 1 2857 2859
194 2 488 489
195 2 488 490
196 2 488 491
197 2 483 484
198 3 483 485
199 6 483 492
200 3 482 483
201 3 482 494
202 6 482 487
203 2 492 493
204 3 492 494
205 5 487 488
206 4 487 492
207 2 485 486
208 4 485 487
209 6 485 494
210 2 481 482
211 2 494 495
212 1 1744 1745
213 1 1744 1746
214 1 1678 1679
215 1 1678 1680
216 1 2905 2906
217 1 2905 2907
218 1 2257 2258
219 1 2257 2259
220 1 2617 2618
221 1 2617 2619
222 1 2680 2681
223 1 2680 2682
224 1 2236 2237
225 1 2236 2238
226 1 1960 1961
227 1 1960 1962
228 1 1549 1550
229 1 1549 1551
230 1 2215 2216
231 1 2215 2217
232 1 1918 1919
233 1 1918 1920
234 1 1843 1844
235 1 1843 1845
236 1 2518 2519
237 1 2518 2520
238 1 1924 1925
239 1 1924 1926
240 2 419 420
241 2 406 407
242 3 407 408
243 3 407 419
244 6 407 412
245 1 1612 1613
246 1 1612 1614
247 1 1627 1628
248 1 1627 1629
249 2 408 409
250 3 408 410
251 6 408 417
252 1 2749 2750
253 1 2749 2751
254 2 417 418
255 3 417 419
256 2 410 411
257 4 410 412
258 6 410 419
259 5 412 413
260 4 412 417
261 1 2794 2795
262 1 2794 2796
263 1 1945 1946
264 1 1945 1947
265 1 4291 4292
266 1 4291 4293
267 1 2065 2066
268 1 2065 2067
269 5 142 143
270 4 142 147
271 2 143 144
272 2 143 145
273 2 143 146
274 2 147 148
275 3 147 149
276 2 140 141
277 4 140 142
278 6 140 149
279 2 138 139
280 3 138 140
281 6 138 147
282 3 137 138
283 3 137 149
284 6 137 142
285 1 2335 2336
286 1 2335 2337
287 1 2875 2876
288 1 2875 2877
289 1 1702 1703
290 1 1702 1704
291 1 2476 2477
292 1 2476 2478
293 1 2170 2171
294 1 2170 2172
295 1 2035 2036
296 1 2035 2037
297 1 1849 1850
298 1 1849 1851
299 1 2068 2069
300 1 2068 2070
301 1 1516 1517
302 1 1516 1518
303 1 2530 2531
304 1 2530 2532
305 1 1741 1742
306 1 1741 1743
307 1 1882 1883
308 1 1882 1884
309 1 1717 1718
310 1 1717 1719
311 2 155 156
312 4 155 157
313 6 155 164
314 2 153 154
315 3 153 155
316 6 153 162
317 5 157 158
318 4 157 162
319 3 152 153
320 3 152 164
321 6 152 157
322 2 162 163
323 3 162 164
324 2 164 165
325 2 151 152
326 2 252 253
327 3 252 254
328 1 2605 2606
329 1 2605 2607
330 1 2134 2135
331 1 2134 2136
332 5 247 248
333 4 247 252
334 1 1978 1979
335 1 1978 1980
336 2 254 255
337 1 2158 2159
338 1 2158 2160
339 1 2218 2219
340 1 2218 2220
341 1 3817 3818
342 1 3817 3819
343 1 2827 2828
344 1 2827 2829
345 1 2161 2162
346 1 2161 2163
347 1 2608 2609
348 1 2608 2610
349 1 1987 1988
350 1 1987 1989
351 1 2515 2516
352 1 2515 2517
353 1 1933 1934
354 1 1933 1935
355 1 2788 2789
356 1 2788 2790
357 1 4123 4124
358 1 4123 4125
359 1 3226 3227
360 1 3226 3228
361 1 2686 2687
362 1 2686 2688
363 1 1669 1670
364 1 1669 1671
365 1 2092 2093
366 1 2092 2094
367 1 1597 1598
368 1 1597 1599
369 1 1858 1859
370 1 1858 1860
371 1 2203 2204
372 1 2203 2205
373 1 2227 2228
374 1 2227 2229
375 1 1567 1568
376 1 1567 1569
377 1 2368 2369
378 1 2368 2370
379 1 1873 1874
380 1 1873 1875
381 1 2692 2693
382 1 2692 2694
383 1 2710 2711
384 1 2710 2712
385 1 2506 2507
386 1 2506 2508
387 1 2665 2666
388 1 2665 2667
389 2 556 557
390 1 2572 2573
391 1 2572 2574
392 2 558 559
393 3 558 560
394 6 558 567
395 2 170 171
396 4 170 172
397 6 170 179
398 2 173 174
399 2 173 175
400 2 173 176
401 1 2533 2534
402 1 2533 2535
403 2 785 786
404 4 785 787
405 6 785 794
406 2 706 707
407 2 46 47
408 2 166 167
409 3 167 168
410 3 167 179
411 6 167 172
412 1 2284 2285
413 1 2284 2286
414 3 47 48
415 3 47 59
416 6 47 52
417 2 57 58
418 3 57 59
419 2 59 60
420 5 52 53
421 4 52 57
422 2 168 169
423 3 168 170
424 6 168 177
425 2 50 51
426 4 50 52
427 6 50 59
428 2 48 49
429 3 48 50
430 6 48 57
431 2 53 54
432 2 53 55
433 2 53 56
434 2 719 720
435 3 707 708
436 3 707 719
437 6 707 712
438 2 783 784
439 3 783 785
440 6 783 792
441 1 2761 2762
442 1 2761 2763
443 2 179 180
444 2 177 178
445 3 177 179
446 1 1540 1541
447 1 1540 1542
448 1 2803 2804
449 1 2803 2805
450 1 1936 1937
451 1 1936 1938
452 1 2527 2528
453 1 2527 2529
454 1 2011 2012
455 1 2011 2013
456 1 1528 1529
457 1 1528 1530
458 1 1603 1604
459 1 1603 1605
460 1 2239 2240
461 1 2239 2241
462 1 3631 3632
463 1 3631 3633
464 1 3418 3419
465 1 3418 3420
466 1 1738 1739
467 1 1738 1740
468 2 848 849
469 2 848 850
470 2 848 851
471 1 3346 3347
472 1 3346 3348
473 1 3880 3881
474 1 3880 3882
475 1 2737 2738
476 1 2737 2739
477 1 1765 1766
478 1 1765 1767
479 3 587 588
480 3 587 599
481 6 587 592
482 1 1963 1964
483 1 1963 1965
484 1 1822 1823
485 1 1822 1824
486 2 717 718
487 3 717 719
488 5 712 713
489 4 712 717
490 1 2662 2663
491 1 2662 2664
492 2 708 709
493 3 708 710
494 6 708 717
495 2 710 711
496 4 710 712
497 6 710 719
498 2 713 714
499 2 713 715
500 2 713 716
501 2 533 534
502 2 533 535
503 2 533 536
504 2 530 531
505 4 530 532
506 6 530 539
507 5 532 533
508 4 532 537
509 2 537 538
510 3 537 539
511 2 539 540
512 3 392 393
513 3 392 404
514 6 392 397
515 1 2164 2165
516 1 2164 2166
517 5 397 398
518 4 397 402
519 1 1579 1580
520 1 1579 1581
521 1 2860 2861
522 1 2860 2862
523 1 2005 2006
524 1 2005 2007
525 1 1537 1538
526 1 1537 1539
527 1 2143 2144
528 1 2143 2145
529 1 1714 1715
530 1 1714 1716
531 1 2914 2915
532 1 2914 2916
533 1 2023 2024
534 1 2023 2025
535 1 2131 2132
536 1 2131 2133
537 2 395 396
538 4 395 397
539 6 395 404
540 2 76 77
541 3 77 78
542 3 77 89
543 6 77 82
544 2 393 394
545 3 393 395
546 6 393 402
547 2 78 79
548 3 78 80
549 6 78 87
550 2 89 90
551 1 4267 4268
552 1 4267 4269
553 2 466 467
554 2 477 478
555 3 477 479
556 2 479 480
557 1 1501 1502
558 1 1501 1503
559 1 2593 2594
560 1 2593 2595
561 2 528 529
562 3 528 530
563 6 528 537
564 2 526 527
565 3 527 528
566 3 527 539
567 6 527 532
568 1 2311 2312
569 1 2311 2313
570 1 2326 2327
571 1 2326 2328
572 1 2344 2345
573 1 2344 2346
574 2 282 283
575 3 282 284
576 2 284 285
577 2 271 272
578 3 272 273
579 3 272 284
580 6 272 277
581 2 273 274
582 3 273 275
583 6 273 282
584 1 2140 2141
585 1 2140 2142
586 5 277 278
587 4 277 282
588 2 275 276
589 4 275 277
590 6 275 284
591 1 1792 1793
592 1 1792 1794
593 1 2029 2030
594 1 2029 2031
595 2 3 4
596 3 3 5
597 6 3 12
598 1 2308 2309
599 1 2308 2310
600 1 1594 1595
601 1 1594 1596
602 2 413 414
603 2 413 415
604 2 413 416
605 1 1783 1784
606 1 1783 1785
607 1 1810 1811
608 1 1810 1812
609 1 3853 3854
610 1 3853 3855
611 1 2770 2771
612 1 2770 2772
613 2 108 109
614 3 108 110
615 6 108 117
616 1 3397 3398
617 1 3397 3399
618 1 2188 2189
619 1 2188 2190
620 2 106 107
621 1 4321 4322
622 1 4321 4323
623 1 1672 1673
624 1 1672 1674
625 2 961 962
626 1 3019 3020
627 1 3019 3021
628 2 1220 1221
629 4 1220 1222
630 6 1220 1229
631 2 149 150
632 2 136 137
633 5 472 473
634 4 472 477
635 2 470 471
636 4 470 472
637 6 470 479
638 3 467 468
639 3 467 479
640 6 467 472
641 2 468 469
642 3 468 470
643 6 468 477
644 2 473 474
645 2 473 475
646 2 473 476
647 1 2929 2930
648 1 2929 2931
649 2 1 2
650 1 1543 1544
651 1 1543 1545
652 1 2560 2561
653 1 2560 2562
654 3 677 678
655 3 677 689
656 6 677 682
657 2 678 679
658 3 678 680
659 6 678 687
660 1 1729 1730
661 1 1729 1731
662 1 1957 1958
663 1 1957 1959
664 2 687 688
665 3 687 689
666 5 682 683
667 4 682 687
668 2 680 681
669 4 680 682
670 6 680 689
671 2 683 684
672 2 683 685
673 2 683 686
674 1 1966 1967
675 1 1966 1968
676 3 2 3
677 3 2 14
678 6 2 7
679 2 338 339
680 2 338 340
681 2 338 341
682 2 110 111
683 4 110 112
684 6 110 119
685 3 107 108
686 3 107 119
687 6 107 112
688 1 2425 2426
689 1 2425 2427
690 2 119 120
691 2 117 118
692 3 117 119
693 1 2383 2384
694 1 2383 2385
695 5 112 113
696 4 112 117
697 2 335 336
698 4 335 337
699 6 335 344
700 5 337 338
701 4 337 342
702 2 333 334
703 3 333 335
704 6 333 342
705 2 331 332
706 3 332 333
707 3 332 344
708 6 332 337
709 2 113 114
710 2 113 115
711 2 113 116
712 1 1828 1829
713 1 1828 1830
714 2 286 287
715 3 287 288
716 3 287 299
717 6 287 292
718 2 290 291
719 4 290 292
720 6 290 299
721 2 288 289
722 3 288 290
723 6 288 297
724 5 292 293
725 4 292 297
726 2 342 343
727 3 342 344
728 2 344 345
729 2 293 294
730 2 293 295
731 2 293 296
732 2 299 300
733 2 297 298
734 3 297 299
735 2 1452 1453
736 3 1452 1454
737 1 2644 2645
738 1 2644 2646
739 2 689 690
740 2 676 677
741 1 2647 2648
742 1 2647 2649
743 1 1615 1616
744 1 1615 1617
745 1 2815 2816
746 1 2815 2817
747 1 2641 2642
748 1 2641 2643
749 1 2176 2177
750 1 2176 2178
751 1 2362 2363
752 1 2362 2364
753 1 2488 2489
754 1 2488 2490
755 1 2734 2735
756 1 2734 2736
757 1 2380 2381
758 1 2380 2382
759 1 2629 2630
760 1 2629 2631
761 2 781 782
762 3 782 783
763 3 782 794
764 6 782 787
765 2 863 864
766 2 863 865
767 2 863 866
768 5 862 863
769 4 862 867
770 1 2044 2045
771 1 2044 2046
772 1 3799 3800
773 1 3799 3801
774 2 646 647
775 3 647 648
776 3 647 659
777 6 647 652
778 2 659 660
779 2 657 658
780 3 657 659
781 2 648 649
782 3 648 650
783 6 648 657
784 2 650 651
785 4 650 652
786 6 650 659
787 5 652 653
788 4 652 657
789 2 653 654
790 2 653 655
791 2 653 656
792 1 2653 2654
793 1 2653 2655
794 2 860 861
795 4 860 862
796 6 860 869
797 1 3184 3185
798 1 3184 3186
799 2 736 737
800 1 2320 2321
801 1 2320 2322
802 2 738 739
803 3 738 740
804 6 738 747
805 3 737 738
806 3 737 749
807 6 737 742
808 5 742 743
809 4 742 747
810 2 740 741
811 4 740 742
812 6 740 749
813 2 747 748
814 3 747 749
815 2 749 750
816 1 2752 2753
817 1 2752 2754
818 2 743 744
819 2 743 745
820 2 743 746
821 5 367 368
822 4 367 372
823 2 365 366
824 4 365 367
825 6 365 374
826 2 329 330
827 2 323 324
828 2 323 325
829 2 323 326
830 5 322 323
831 4 322 327
832 2 327 328
833 3 327 329
834 1 2437 2438
835 1 2437 2439
836 1 2881 2882
837 1 2881 2883
838 1 2407 2408
839 1 2407 2409
840 2 368 369
841 2 368 370
842 2 368 371
843 1 2509 2510
844 1 2509 2511
845 2 363 364
846 3 363 365
847 6 363 372
848 2 372 373
849 3 372 374
850 1 2155 2156
851 1 2155 2157
852 1 1525 1526
853 1 1525 1527
854 1 1654 1655
855 1 1654 1656
856 1 1657 1658
857 1 1657 1659
858 1 1774 1775
859 1 1774 1776
860 1 1906 1907
861 1 1906 1908
862 2 642 643
863 3 642 644
864 2 374 375
865 3 362 363
866 3 362 374
867 6 362 367
868 2 361 362
869 1 1639 1640
870 1 1639 1641
871 2 638 639
872 2 638 640
873 2 638 641
874 5 637 638
875 4 637 642
876 2 644 645
877 1 2908 2909
878 1 2908 2910
879 2 18 19
880 3 18 20
881 6 18 27
882 2 20 21
883 4 20 22
884 6 20 29
885 2 16 17
886 2 27 28
887 3 27 29
888 2 29 30
889 3 17 18
890 3 17 29
891 6 17 22
892 1 2026 2027
893 1 2026 2028
894 1 1795 1796
895 1 1795 1797
896 1 2899 2900
897 1 2899 2901
898 5 22 23
899 4 22 27
900 1 1972 1973
901 1 1972 1974
902 2 23 24
903 2 23 25
904 2 23 26
905 1 2299 2300
906 1 2299 2301
907 1 2200 2201
908 1 2200 2202
909 1 1954 1955
910 1 1954 1956
911 1 2512 2513
912 1 2512 2514
913 1 2020 2021
914 1 2020 2022
915 2 404 405
916 5 1447 1448
917 4 1447 1452
918 2 1223 1224
919 2 1223 1225
920 2 1223 1226
921 2 80 81
922 4 80 82
923 6 80 89
924 2 391 392
925 1 2740 2741
926 1 2740 2742
927 5 82 83
928 4 82 87
929 2 631 632
930 2 87 88
931 3 87 89
932 2 83 84
933 2 83 85
934 2 83 86
935 3 632 633
936 3 632 644
937 6 632 637
938 1 1969 1970
939 1 1969 1971
940 2 633 634
941 3 633 635
942 6 633 642
943 2 635 636
944 4 635 637
945 6 635 644
946 1 4369 4370
947 1 4369 4371
948 2 661 662
949 3 662 663
950 3 662 674
951 6 662 667
952 2 674 675
953 1 1576 1577
954 1 1576 1578
955 2 603 604
956 3 603 605
957 6 603 612
958 3 602 603
959 3 602 614
960 6 602 607
961 2 601 602
962 2 605 606
963 4 605 607
964 6 605 614
965 2 614 615
966 2 5 6
967 4 5 7
968 6 5 14
969 2 237 238
970 3 237 239
971 1 2347 2348
972 1 2347 2349
973 2 608 609
974 2 608 610
975 2 608 611
976 2 278 279
977 2 278 280
978 2 278 281
979 5 607 608
980 4 607 612
981 2 612 613
982 3 612 614
983 1 2050 2051
984 1 2050 2052
985 1 2416 2417
986 1 2416 2418
987 1 2446 2447
988 1 2446 2448
989 1 2329 2330
990 1 2329 2331
991 1 2269 2270
992 1 2269 2271
993 1 2896 2897
994 1 2896 2898
995 1 2764 2765
996 1 2764 2766
997 1 2434 2435
998 1 2434 2436
999 1 2410 2411
1000 1 2410 2412
1001 1 2674 2675
1002 1 2674 2676
1003 1 1855 1856
1004 1 1855 1857
1005 2 665 666
1006 4 665 667
1007 6 665 674
1008 2 663 664
1009 3 663 665
1010 6 663 672
1011 1 1927 1928
1012 1 1927 1929
1013 1 4171 4172
1014 1 4171 4173
1015 1 1582 1583
1016 1 1582 1584
1017 1 2590 2591
1018 1 2590 2592
1019 1 1624 1625
1020 1 1624 1626
1021 1 2017 2018
1022 1 2017 2019
1023 1 2497 2498
1024 1 2497 2499
1025 1 1531 1532
1026 1 1531 1533
1027 1 1876 1877
1028 1 1876 1878
1029 1 1762 1763
1030 1 1762 1764
1031 2 1066 1067
1032 2 1448 1449
1033 2 1448 1450
1034 2 1448 1451
1035 2 14 15
1036 5 7 8
1037 4 7 12
1038 2 12 13
1039 3 12 14
1040 2 8 9
1041 2 8 10
1042 2 8 11
1043 2 428 429
1044 2 428 430
1045 2 428 431
1046 1 1912 1913
1047 1 1912 1914
1048 1 2101 2102
1049 1 2101 2103
1050 1 1681 1682
1051 1 1681 1683
1052 1 2302 2303
1053 1 2302 2304
1054 1 2485 2486
1055 1 2485 2487
1056 1 2248 2249
1057 1 2248 2250
1058 1 1546 1547
1059 1 1546 1548
1060 1 2197 2198
1061 1 2197 2199
1062 1 2263 2264
1063 1 2263 2265
1064 1 2413 2414
1065 1 2413 2415
1066 1 2698 2699
1067 1 2698 2700
1068 2 548 549
1069 2 548 550
1070 2 548 551
1071 5 547 548
1072 4 547 552
1073 1 1801 1802
1074 1 1801 1803
1075 2 451 452
1076 5 1222 1223
1077 4 1222 1227
1078 3 452 453
1079 3 452 464
1080 6 452 457
1081 2 464 465
1082 1 2116 2117
1083 1 2116 2118
1084 2 458 459
1085 2 458 460
1086 2 458 461
1087 1 2461 2462
1088 1 2461 2463
1089 2 453 454
1090 3 453 455
1091 6 453 462
1092 2 455 456
1093 4 455 457
1094 6 455 464
1095 5 457 458
1096 4 457 462
1097 2 462 463
1098 3 462 464
1099 1 1708 1709
1100 1 1708 1710
1101 1 2575 2576
1102 1 2575 2577
1103 1 1921 1922
1104 1 1921 1923
1105 1 2032 2033
1106 1 2032 2034
1107 1 2365 2366
1108 1 2365 2367
1109 2 788 789
1110 2 788 790
1111 2 788 791
1112 5 787 788
1113 4 787 792
1114 2 316 317
1115 3 317 318
1116 3 317 329
1117 6 317 322
1118 2 794 795
1119 2 792 793
1120 3 792 794
1121 2 432 433
1122 3 432 434
1123 1 2125 2126
1124 1 2125 2127
1125 2 545 546
1126 4 545 547
1127 6 545 554
1128 2 541 542
1129 2 543 544
1130 3 543 545
1131 6 543 552
1132 2 554 555
1133 3 542 543
1134 3 542 554
1135 6 542 547
1136 2 552 553
1137 3 552 554
1138 2 318 319
1139 3 318 320
1140 6 318 327
1141 2 320 321
1142 4 320 322
1143 6 320 329
1144 2 434 435
1145 1 2542 2543
1146 1 2542 2544
1147 1 1939 1940
1148 1 1939 1941
1149 1 3058 3059
1150 1 3058 3060
1151 1 2848 2849
1152 1 2848 2850
1153 1 1606 1607
1154 1 1606 1608
1155 1 1942 1943
1156 1 1942 1944
1157 1 2755 2756
1158 1 2755 2757
1159 1 1573 1574
1160 1 1573 1575
1161 1 2305 2306
1162 1 2305 2307
1163 1 2182 2183
1164 1 2182 2184
1165 1 2683 2684
1166 1 2683 2685
1167 1 2014 2015
1168 1 2014 2016
1169 1 2314 2315
1170 1 2314 2316
1171 1 1732 1733
1172 1 1732 1734
1173 1 1642 1643
1174 1 1642 1644
1175 1 1504 1505
1176 1 1504 1506
1177 1 2470 2471
1178 1 2470 2472
1179 1 2920 2921
1180 1 2920 2922
1181 1 2254 2255
1182 1 2254 2256
1183 1 1735 1736
1184 1 1735 1737
1185 1 2374 2375
1186 1 2374 2376
1187 1 2797 2798
1188 1 2797 2799
1189 1 2443 2444
1190 1 2443 2445
1191 1 1636 1637
1192 1 1636 1638
1193 1 2377 2378
1194 1 2377 2379
1195 1 2494 2495
1196 1 2494 2496
1197 1 1990 1991
1198 1 1990 1992
1199 1 2731 2732
1200 1 2731 2733
1201 1 1591 1592
1202 1 1591 1593
1203 1 2611 2612
1204 1 2611 2613
1205 1 4342 4343
1206 1 4342 4344
1207 1 1984 1985
1208 1 1984 1986
1209 1 2599 2600
1210 1 2599 2601
1211 1 2398 2399
1212 1 2398 2400
1213 2 597 598
1214 3 597 599
1215 1 4324 4325
1216 1 4324 4326
1217 2 590 591
1218 4 590 592
1219 6 590 599
1220 2 593 594
1221 2 593 595
1222 2 593 596
1223 1 2587 2588
1224 1 2587 2589
1225 1 1507 1508
1226 1 1507 1509
1227 1 2623 2624
1228 1 2623 2625
1229 1 2278 2279
1230 1 2278 2280
1231 5 592 593
1232 4 592 597
1233 1 1723 1724
1234 1 1723 1725
1235 1 3145 3146
1236 1 3145 3147
1237 1 3808 3809
1238 1 3808 3810
1239 1 1588 1589
1240 1 1588 1590
1241 1 1690 1691
1242 1 1690 1692
1243 1 1834 1835
1244 1 1834 1836
1245 1 2926 2927
1246 1 2926 2928
1247 1 2350 2351
1248 1 2350 2352
1249 1 2551 2552
1250 1 2551 2553
1251 1 2389 2390
1252 1 2389 2391
1253 1 2059 2060
1254 1 2059 2061
1255 1 2746 2747
1256 1 2746 2748
1257 1 2620 2621
1258 1 2620 2622
1259 1 2386 2387
1260 1 2386 2388
1261 1 2083 2084
1262 1 2083 2085
1263 1 2290 2291
1264 1 2290 2292
1265 1 2713 2714
1266 1 2713 2715
1267 1 1894 1895
1268 1 1894 1896
1269 1 4387 4388
1270 1 4387 4389
1271 1 2785 2786
1272 1 2785 2787
1273 1 3049 3050
1274 1 3049 3051
1275 1 1558 1559
1276 1 1558 1560
1277 1 2404 2405
1278 1 2404 2406
1279 1 2743 2744
1280 1 2743 2745
1281 1 4396 4397
1282 1 4396 4398
1283 1 2866 2867
1284 1 2866 2868
1285 1 2431 2432
1286 1 2431 2433
1287 1 2776 2777
1288 1 2776 2778
1289 2 443 444
1290 2 443 445
1291 2 443 446
1292 1 1777 1778
1293 1 1777 1779
1294 1 4111 4112
1295 1 4111 4113
1296 2 440 441
1297 4 440 442
1298 6 440 449
1299 1 1816 1817
1300 1 1816 1818
1301 5 442 443
1302 4 442 447
1303 2 672 673
1304 3 672 674
1305 2 228 229
1306 3 228 230
1307 6 228 237
1308 3 227 228
1309 3 227 239
1310 6 227 232
1311 2 226 227
1312 2 239 240
1313 2 230 231
1314 4 230 232
1315 6 230 239
1316 5 232 233
1317 4 232 237
1318 1 2728 2729
1319 1 2728 2730
1320 1 1819 1820
1321 1 1819 1821
1322 1 2839 2840
1323 1 2839 2841
1324 1 2056 2057
1325 1 2056 2058
1326 1 2077 2078
1327 1 2077 2079
1328 1 2818 2819
1329 1 2818 2820
1330 1 1561 1562
1331 1 1561 1563
1332 1 1519 1520
1333 1 1519 1521
1334 1 2566 2567
1335 1 2566 2568
1336 1 2800 2801
1337 1 2800 2802
1338 1 2266 2267
1339 1 2266 2268
1340 1 2707 2708
1341 1 2707 2709
1342 2 1272 1273
1343 3 1272 1274
1344 2 668 669
1345 2 668 670
1346 2 668 671
1347 1 2554 2555
1348 1 2554 2556
1349 2 449 450
1350 5 667 668
1351 4 667 672
1352 2 447 448
1353 3 447 449
1354 2 436 437
1355 3 437 438
1356 3 437 449
1357 6 437 442
1358 2 438 439
1359 3 438 440
1360 6 438 447
1361 2 1079 1080
1362 3 1067 1068
1363 3 1067 1079
1364 6 1067 1072
1365 2 773 774
1366 2 773 775
1367 2 773 776
1368 2 770 771
1369 4 770 772
1370 6 770 779
1371 2 1070 1071
1372 4 1070 1072
1373 6 1070 1079
1374 2 1068 1069
1375 3 1068 1070
1376 6 1068 1077
1377 2 768 769
1378 3 768 770
1379 6 768 777
1380 5 772 773
1381 4 772 777
1382 2 777 778
1383 3 777 779
1384 2 1077 1078
1385 3 1077 1079
1386 1 2323 2324
1387 1 2323 2325
1388 5 1072 1073
1389 4 1072 1077
1390 2 1073 1074
1391 2 1073 1075
1392 2 1073 1076
1393 1 1897 1898
1394 1 1897 1899
1395 2 233 234
1396 2 233 235
1397 2 233 236
1398 2 65 66
1399 4 65 67
1400 6 65 74
1401 2 63 64
1402 3 63 65
1403 6 63 72
1404 5 67 68
1405 4 67 72
1406 2 68 69
1407 2 68 70
1408 2 68 71
1409 2 72 73
1410 3 72 74
1411 3 62 63
1412 3 62 74
1413 6 62 67
1414 2 74 75
1415 1 2185 2186
1416 1 2185 2187
1417 1 2869 2870
1418 1 2869 2871
1419 1 1981 1982
1420 1 1981 1983
1421 1 1825 1826
1422 1 1825 1827
1423 2 305 306
1424 4 305 307
1425 6 305 314
1426 1 2293 2294
1427 1 2293 2295
1428 2 303 304
1429 3 303 305
1430 6 303 312
1431 1 2536 2537
1432 1 2536 2538
1433 5 307 308
1434 4 307 312
1435 1 2887 2888
1436 1 2887 2889
1437 1 1780 1781
1438 1 1780 1782
1439 1 2104 2105
1440 1 2104 2106
1441 1 2287 2288
1442 1 2287 2289
1443 1 3865 3866
1444 1 3865 3867
1445 5 427 428
1446 4 427 432
1447 1 2245 2246
1448 1 2245 2247
1449 1 4417 4418
1450 1 4417 4419
1451 1 3718 3719
1452 1 3718 3720
1453 3 722 723
1454 3 722 734
1455 6 722 727
1456 1 3310 3311
1457 1 3310 3312
1458 2 732 733
1459 3 732 734
1460 5 727 728
1461 4 727 732
1462 2 725 726
1463 4 725 727
1464 6 725 734
1465 2 734 735
1466 2 728 729
1467 2 728 730
1468 2 728 731
1469 2 723 724
1470 3 723 725
1471 6 723 732
1472 2 578 579
1473 2 578 580
1474 2 578 581
1475 2 721 722
1476 1 2950 2951
1477 1 2950 2952
1478 1 2251 2252
1479 1 2251 2253
1480 1 4336 4337
1481 1 4336 4338
1482 2 1004 1005
1483 3 302 303
1484 3 302 314
1485 6 302 307
1486 2 301 302
1487 2 312 313
1488 3 312 314
1489 2 314 315
1490 2 425 426
1491 4 425 427
1492 6 425 434
1493 2 423 424
1494 3 423 425
1495 6 423 432
1496 1 1570 1571
1497 1 1570 1572
1498 3 422 423
1499 3 422 434
1500 6 422 427
1501 2 421 422
1502 1 2704 2705
1503 1 2704 2706
1504 1 2521 2522
1505 1 2521 2523
1506 1 2659 2660
1507 1 2659 2661
1508 1 1693 1694
1509 1 1693 1695
1510 1 2830 2831
1511 1 2830 2832
1512 1 2500 2501
1513 1 2500 2502
1514 2 104 105
1515 2 102 103
1516 3 102 104
1517 2 91 92
1518 1 1651 1652
1519 1 1651 1653
1520 1 1684 1685
1521 1 1684 1686
1522 1 3928 3929
1523 1 3928 3930
1524 1 2395 2396
1525 1 2395 2397
1526 1 1696 1697
1527 1 1696 1698
1528 1 2548 2549
1529 1 2548 2550
1530 1 2062 2063
1531 1 2062 2064
1532 2 98 99
1533 2 98 100
1534 2 98 101
1535 3 92 93
1536 3 92 104
1537 6 92 97
1538 5 97 98
1539 4 97 102
1540 2 95 96
1541 4 95 97
1542 6 95 104
1543 2 93 94
1544 3 93 95
1545 6 93 102
1546 2 1388 1389
1547 2 1388 1390
1548 2 1388 1391
1549 1 2098 2099
1550 1 2098 2100
1551 2 200 201
1552 4 200 202
1553 6 200 209
1554 5 697 698
1555 4 697 702
1556 2 695 696
1557 4 695 697
1558 6 695 704
1559 2 693 694
1560 3 693 695
1561 6 693 702
1562 1 2119 2120
1563 1 2119 2121
1564 2 702 703
1565 3 702 704
1566 1 2071 2072
1567 1 2071 2073
1568 1 1888 1889
1569 1 1888 1890
1570 2 698 699
1571 2 698 700
1572 2 698 701
1573 1 2041 2042
1574 1 2041 2043
1575 1 2473 2474
1576 1 2473 2475
1577 1 1621 1622
1578 1 1621 1623
1579 1 1648 1649
1580 1 1648 1650
1581 1 2224 2225
1582 1 2224 2226
1583 2 616 617
1584 3 617 618
1585 3 617 629
1586 6 617 622
1587 1 2275 2276
1588 1 2275 2277
1589 1 2557 2558
1590 1 2557 2559
1591 1 1666 1667
1592 1 1666 1668
1593 2 629 630
1594 1 1789 1790
1595 1 1789 1791
1596 2 123 124
1597 3 123 125
1598 6 123 132
1599 2 599 600
1600 2 248 249
1601 2 248 250
1602 2 248 251
1603 2 125 126
1604 4 125 127
1605 6 125 134
1606 5 1267 1268
1607 4 1267 1272
1608 2 376 377
1609 2 132 133
1610 3 132 134
1611 3 377 378
1612 3 377 389
1613 6 377 382
1614 3 347 348
1615 3 347 359
1616 6 347 352
1617 2 348 349
1618 3 348 350
1619 6 348 357
1620 2 346 347
1621 2 389 390
1622 2 359 360
1623 2 357 358
1624 3 357 359
1625 2 350 351
1626 4 350 352
1627 6 350 359
1628 2 623 624
1629 2 623 625
1630 2 623 626
1631 1 3457 3458
1632 1 3457 3459
1633 1 3925 3926
1634 1 3925 3927
1635 5 622 623
1636 4 622 627
1637 2 620 621
1638 4 620 622
1639 6 620 629
1640 2 618 619
1641 3 618 620
1642 6 618 627
1643 5 127 128
1644 4 127 132
1645 5 352 353
1646 4 352 357
1647 2 1002 1003
1648 3 1002 1004
1649 1 2122 2123
1650 1 2122 2124
1651 2 627 628
1652 3 627 629
1653 2 378 379
1654 3 378 380
1655 6 378 387
1656 2 704 705
1657 3 692 693
1658 3 692 704
1659 6 692 697
1660 2 691 692
1661 1 2851 2852
1662 1 2851 2853
1663 1 2539 2540
1664 1 2539 2541
1665 1 2206 2207
1666 1 2206 2208
1667 1 1759 1760
1668 1 1759 1761
1669 1 2791 2792
1670 1 2791 2793
1671 1 2038 2039
1672 1 2038 2040
1673 1 1909 1910
1674 1 1909 1911
1675 1 2878 2879
1676 1 2878 2880
1677 1 1585 1586
1678 1 1585 1587
1679 1 1552 1553
1680 1 1552 1554
1681 1 1948 1949
1682 1 1948 1950
1683 1 1711 1712
1684 1 1711 1713
1685 2 976 977
1686 1 4420 4421
1687 1 4420 4422
1688 2 402 403
1689 3 402 404
1690 1 2128 2129
1691 1 2128 2130
1692 1 2602 2603
1693 1 2602 2604
1694 2 353 354
1695 2 353 355
1696 2 353 356
1697 1 1999 2000
1698 1 1999 2001
1699 1 2959 2960
1700 1 2959 2961
1701 2 751 752
1702 2 764 765
1703 3 752 753
1704 3 752 764
1705 6 752 757
1706 1 3172 3173
1707 1 3172 3174
1708 2 753 754
1709 3 753 755
1710 6 753 762
1711 2 762 763
1712 3 762 764
1713 2 755 756
1714 4 755 757
1715 6 755 764
1716 2 758 759
1717 2 758 760
1718 2 758 761
1719 5 757 758
1720 4 757 762
1721 3 1442 1443
1722 3 1442 1454
1723 6 1442 1447
1724 1 2821 2822
1725 1 2821 2823
1726 2 796 797
1727 1 1846 1847
1728 1 1846 1848
1729 1 1726 1727
1730 1 1726 1728
1731 1 2002 2003
1732 1 2002 2004
1733 1 2149 2150
1734 1 2149 2151
1735 2 798 799
1736 3 798 800
1737 6 798 807
1738 2 809 810
1739 3 797 798
1740 3 797 809
1741 6 797 802
1742 1 2701 2702
1743 1 2701 2703
1744 2 807 808
1745 3 807 809
1746 1 2152 2153
1747 1 2152 2154
1748 2 800 801
1749 4 800 802
1750 6 800 809
1751 2 803 804
1752 2 803 805
1753 2 803 806
1754 1 1975 1976
1755 1 1975 1977
1756 5 802 803
1757 4 802 807
1758 1 2242 2243
1759 1 2242 2244
1760 1 2725 2726
1761 1 2725 2727
1762 1 2212 2213
1763 1 2212 2214
1764 1 2440 2441
1765 1 2440 2442
1766 1 1807 1808
1767 1 1807 1809
1768 1 1879 1880
1769 1 1879 1881
1770 1 4246 4247
1771 1 4246 4248
1772 3 767 768
1773 3 767 779
1774 6 767 772
1775 2 779 780
1776 1 2353 2354
1777 1 2353 2355
1778 1 2824 2825
1779 1 2824 2826
1780 2 766 767
1781 1 2452 2453
1782 1 2452 2454
1783 1 2596 2597
1784 1 2596 2598
1785 1 2782 2783
1786 1 2782 2784
1787 1 1675 1676
1788 1 1675 1677
1789 1 4162 4163
1790 1 4162 4164
1791 1 2209 2210
1792 1 2209 2211
1793 1 2836 2837
1794 1 2836 2838
1795 1 3040 3041
1796 1 3040 3042
1797 1 3379 3380
1798 1 3379 3381
1799 2 61 62
1800 1 2467 2468
1801 1 2467 2469
1802 2 308 309
1803 2 308 310
1804 2 308 311
1805 1 2086 2087
1806 1 2086 2088
1807 1 2230 2231
1808 1 2230 2232
1809 1 2482 2483
1810 1 2482 2484
1811 1 1861 1862
1812 1 1861 1863
1813 1 1513 1514
1814 1 1513 1515
1815 1 1813 1814
1816 1 1813 1815
1817 1 2545 2546
1818 1 2545 2547
1819 1 2569 2570
1820 1 2569 2571
1821 1 2632 2633
1822 1 2632 2634
1823 1 1993 1994
1824 1 1993 1995
1825 1 1630 1631
1826 1 1630 1632
1827 1 2281 2282
1828 1 2281 2283
1829 1 2074 2075
1830 1 2074 2076
1831 1 2563 2564
1832 1 2563 2565
1833 1 1903 1904
1834 1 1903 1905
1835 1 2695 2696
1836 1 2695 2697
1837 1 3211 3212
1838 1 3211 3213
1839 1 1864 1865
1840 1 1864 1866
1841 1 3313 3314
1842 1 3313 3315
1843 1 3424 3425
1844 1 3424 3426
1845 1 3220 3221
1846 1 3220 3222
1847 1 2008 2009
1848 1 2008 2010
1849 2 245 246
1850 4 245 247
1851 6 245 254
1852 1 1753 1754
1853 1 1753 1755
1854 2 241 242
1855 3 242 243
1856 3 242 254
1857 6 242 247
1858 2 243 244
1859 3 243 245
1860 6 243 252
1861 1 2584 2585
1862 1 2584 2586
1863 1 2449 2450
1864 1 2449 2451
1865 1 2902 2903
1866 1 2902 2904
1867 1 2671 2672
1868 1 2671 2673
1869 1 2047 2048
1870 1 2047 2049
1871 1 1804 1805
1872 1 1804 1806
1873 1 2854 2855
1874 1 2854 2856
1875 1 2095 2096
1876 1 2095 2097
1877 1 1510 1511
1878 1 1510 1512
1879 1 2191 2192
1880 1 2191 2193
1881 1 2677 2678
1882 1 2677 2679
1883 1 1852 1853
1884 1 1852 1854
1885 1 1564 1565
1886 1 1564 1566
1887 1 2626 2627
1888 1 2626 2628
1889 1 2890 2891
1890 1 2890 2892
1891 5 562 563
1892 4 562 567
1893 1 1720 1721
1894 1 1720 1722
1895 3 557 558
1896 3 557 569
1897 6 557 562
1898 2 569 570
1899 1 2953 2954
1900 1 2953 2955
1901 1 2359 2360
1902 1 2359 2361
1903 2 563 564
1904 2 563 565
1905 2 563 566
1906 2 1265 1266
1907 4 1265 1267
1908 6 1265 1274
1909 2 1392 1393
1910 3 1392 1394
1911 1 2371 2372
1912 1 2371 2373
1913 1 2260 2261
1914 1 2260 2262
1915 2 560 561
1916 4 560 562
1917 6 560 569
1918 2 567 568
1919 3 567 569
1920 2 1385 1386
1921 4 1385 1387
1922 6 1385 1394
1923 5 1387 1388
1924 4 1387 1392
1925 1 2917 2918
1926 1 2917 2919
1927 1 4099 4100
1928 1 4099 4101
1929 1 2332 2333
1930 1 2332 2334
1931 2 1441 1442
1932 1 4252 4253
1933 1 4252 4254
1934 1 3502 3503
1935 1 3502 3504
1936 2 588 589
1937 3 588 590
1938 6 588 597
1939 1 3088 3089
1940 1 3088 3090
1941 1 3238 3239
1942 1 3238 3240
1943 1 3361 3362
1944 1 3361 3363
1945 1 3712 3713
1946 1 3712 3714
1947 1 3943 3944
1948 1 3943 3945
1949 1 4303 4304
1950 1 4303 4305
1951 1 2524 2525
1952 1 2524 2526
1953 1 4339 4340
1954 1 4339 4341
1955 1 3265 3266
1956 1 3265 3267
1957 1 3790 3791
1958 1 3790 3792
1959 2 1422 1423
1960 3 1422 1424
1961 2 1415 1416
1962 4 1415 1417
1963 6 1415 1424
1964 5 1417 1418
1965 4 1417 1422
1966 2 1418 1419
1967 2 1418 1420
1968 2 1418 1421
1969 1 2581 2582
1970 1 2581 2583
1971 1 3319 3320
1972 1 3319 3321
1973 1 4108 4109
1974 1 4108 4110
1975 1 1750 1751
1976 1 1750 1752
1977 1 2998 2999
1978 1 2998 3000
1979 1 4117 4118
1980 1 4117 4119
1981 1 3940 3941
1982 1 3940 3942
1983 1 3766 3767
1984 1 3766 3768
1985 1 3868 3869
1986 1 3868 3870
1987 1 3181 3182
1988 1 3181 3183
1989 1 4393 4394
1990 1 4393 4395
1991 1 3769 3770
1992 1 3769 3771
1993 1 3745 3746
1994 1 3745 3747
1995 1 4306 4307
1996 1 4306 4308
1997 1 3823 3824
1998 1 3823 3825
1999 1 3829 3830
2000 1 3829 3831
2001 1 3082 3083
2002 1 3082 3084
2003 2 1169 1170
2004 2 1156 1157
2005 3 1157 1158
2006 3 1157 1169
2007 6 1157 1162
2008 2 1160 1161
2009 4 1160 1162
2010 6 1160 1169
2011 2 1167 1168
2012 3 1167 1169
2013 2 1163 1164
2014 2 1163 1165
2015 2 1163 1166
2016 5 1162 1163
2017 4 1162 1167
2018 2 1158 1159
2019 3 1158 1160
2020 6 1158 1167
2021 2 1424 1425
2022 2 1411 1412
2023 3 1412 1413
2024 3 1412 1424
2025 6 1412 1417
2026 2 1413 1414
2027 3 1413 1415
2028 6 1413 1422
2029 1 3676 3677
2030 1 3676 3678
2031 1 4474 4475
2032 1 4474 4476
2033 1 3244 3245
2034 1 3244 3246
2035 2 1274 1275
2036 1 3316 3317
2037 1 3316 3318
2038 1 3664 3665
2039 1 3664 3666
2040 3 1262 1263
2041 3 1262 1274
2042 6 1262 1267
2043 2 1263 1264
2044 3 1263 1265
2045 6 1263 1272
2046 2 1261 1262
2047 2 841 842
2048 3 842 843
2049 3 842 854
2050 6 842 847
2051 1 3193 3194
2052 1 3193 3195
2053 1 3469 3470
2054 1 3469 3471
2055 1 3955 3956
2056 1 3955 3957
2057 1 4480 4481
2058 1 4480 4482
2059 1 3127 3128
2060 1 3127 3129
2061 1 3916 3917
2062 1 3916 3918
2063 1 3061 3062
2064 1 3061 3063
2065 1 3217 3218
2066 1 3217 3219
2067 1 3703 3704
2068 1 3703 3705
2069 1 4498 4499
2070 1 4498 4500
2071 1 3544 3545
2072 1 3544 3546
2073 1 2971 2972
2074 1 2971 2973
2075 1 3754 3755
2076 1 3754 3756
2077 1 3151 3152
2078 1 3151 3153
2079 1 4372 4373
2080 1 4372 4374
2081 1 3568 3569
2082 1 3568 3570
2083 1 1798 1799
2084 1 1798 1800
2085 1 4471 4472
2086 1 4471 4473
2087 1 2356 2357
2088 1 2356 2358
2089 1 3010 3011
2090 1 3010 3012
2091 1 4225 4226
2092 1 4225 4227
2093 1 2980 2981
2094 1 2980 2982
2095 1 3052 3053
2096 1 3052 3054
2097 1 4207 4208
2098 1 4207 4209
2099 1 3697 3698
2100 1 3697 3699
2101 2 965 966
2102 4 965 967
2103 6 965 974
2104 1 3322 3323
2105 1 3322 3324
2106 1 1522 1523
2107 1 1522 1524
2108 1 3994 3995
2109 1 3994 3996
2110 1 3169 3170
2111 1 3169 3171
2112 1 4483 4484
2113 1 4483 4485
2114 1 3289 3290
2115 1 3289 3291
2116 1 4366 4367
2117 1 4366 4368
2118 1 3934 3935
2119 1 3934 3936
2120 2 1336 1337
2121 1 2719 2720
2122 1 2719 2721
2123 1 4462 4463
2124 1 4462 4464
2125 1 3493 3494
2126 1 3493 3495
2127 1 3796 3797
2128 1 3796 3798
2129 1 4138 4139
2130 1 4138 4140
2131 1 2233 2234
2132 1 2233 2235
2133 1 3961 3962
2134 1 3961 3963
2135 1 2965 2966
2136 1 2965 2967
2137 1 2911 2912
2138 1 2911 2913
2139 1 4165 4166
2140 1 4165 4167
2141 2 972 973
2142 3 972 974
2143 2 573 574
2144 3 573 575
2145 6 573 582
2146 5 577 578
2147 4 577 582
2148 2 575 576
2149 4 575 577
2150 6 575 584
2151 1 3739 3740
2152 1 3739 3741
2153 3 572 573
2154 3 572 584
2155 6 572 577
2156 2 571 572
2157 1 3442 3443
2158 1 3442 3444
2159 1 4327 4328
2160 1 4327 4329
2161 1 4489 4490
2162 1 4489 4491
2163 1 3907 3908
2164 1 3907 3909
2165 1 1534 1535
2166 1 1534 1536
2167 1 3811 3812
2168 1 3811 3813
2169 1 4018 4019
2170 1 4018 4020
2171 1 4114 4115
2172 1 4114 4116
2173 1 3250 3251
2174 1 3250 3252
2175 1 3814 3815
2176 1 3814 3816
2177 1 3895 3896
2178 1 3895 3897
2179 1 3121 3122
2180 1 3121 3123
2181 1 4408 4409
2182 1 4408 4410
2183 1 3385 3386
2184 1 3385 3387
2185 1 3919 3920
2186 1 3919 3921
2187 1 4231 4232
2188 1 4231 4233
2189 1 4492 4493
2190 1 4492 4494
2191 1 4312 4313
2192 1 4312 4314
2193 1 3043 3044
2194 1 3043 3045
2195 1 3499 3500
2196 1 3499 3501
2197 1 1699 1700
2198 1 1699 1701
2199 1 3412 3413
2200 1 3412 3414
2201 1 3451 3452
2202 1 3451 3453
2203 1 2842 2843
2204 1 2842 2844
2205 1 2932 2933
2206 1 2932 2934
2207 1 3910 3911
2208 1 3910 3912
2209 2 515 516
2210 4 515 517
2211 6 515 524
2212 1 2872 2873
2213 1 2872 2874
2214 2 869 870
2215 1 3130 3131
2216 1 3130 3132
2217 1 3772 3773
2218 1 3772 3774
2219 1 3538 3539
2220 1 3538 3540
2221 1 3844 3845
2222 1 3844 3846
2223 1 3619 3620
2224 1 3619 3621
2225 2 503 504
2226 2 503 505
2227 2 503 506
2228 1 4333 4334
2229 1 4333 4335
2230 1 3952 3953
2231 1 3952 3954
2232 1 2317 2318
2233 1 2317 2319
2234 1 1900 1901
2235 1 1900 1902
2236 1 4351 4352
2237 1 4351 4353
2238 1 3139 3140
2239 1 3139 3141
2240 1 4276 4277
2241 1 4276 4278
2242 1 4204 4205
2243 1 4204 4206
2244 1 3286 3287
2245 1 3286 3288
2246 1 3856 3857
2247 1 3856 3858
2248 1 3637 3638
2249 1 3637 3639
2250 1 3328 3329
2251 1 3328 3330
2252 1 3112 3113
2253 1 3112 3114
2254 1 3742 3743
2255 1 3742 3744
2256 1 4042 4043
2257 1 4042 4044
2258 1 3511 3512
2259 1 3511 3513
2260 1 3136 3137
2261 1 3136 3138
2262 2 854 855
2263 1 3649 3650
2264 1 3649 3651
2265 1 3394 3395
2266 1 3394 3396
2267 1 4021 4022
2268 1 4021 4023
2269 1 3547 3548
2270 1 3547 3549
2271 1 3376 3377
2272 1 3376 3378
2273 1 2635 2636
2274 1 2635 2637
2275 1 3658 3659
2276 1 3658 3660
2277 1 4411 4412
2278 1 4411 4413
2279 1 4249 4250
2280 1 4249 4251
2281 5 1207 1208
2282 4 1207 1212
2283 2 852 853
2284 3 852 854
2285 1 3001 3002
2286 1 3001 3003
2287 1 3031 3032
2288 1 3031 3033
2289 2 1205 1206
2290 4 1205 1207
2291 6 1205 1214
2292 2 1383 1384
2293 3 1383 1385
2294 6 1383 1392
2295 1 1867 1868
2296 1 1867 1869
2297 1 3874 3875
2298 1 3874 3876
2299 1 3517 3518
2300 1 3517 3519
2301 1 3580 3581
2302 1 3580 3582
2303 1 3256 3257
2304 1 3256 3258
2305 1 3634 3635
2306 1 3634 3636
2307 1 2935 2936
2308 1 2935 2937
2309 1 4438 4439
2310 1 4438 4440
2311 1 3283 3284
2312 1 3283 3285
2313 1 3187 3188
2314 1 3187 3189
2315 2 918 919
2316 3 918 920
2317 6 918 927
2318 2 920 921
2319 4 920 922
2320 6 920 929
2321 2 923 924
2322 2 923 925
2323 2 923 926
2324 5 922 923
2325 4 922 927
2326 1 2923 2924
2327 1 2923 2925
2328 1 3505 3506
2329 1 3505 3507
2330 1 2956 2957
2331 1 2956 2958
2332 1 3154 3155
2333 1 3154 3156
2334 1 3622 3623
2335 1 3622 3624
2336 1 2503 2504
2337 1 2503 2505
2338 1 3175 3176
2339 1 3175 3177
2340 1 3280 3281
2341 1 3280 3282
2342 1 3055 3056
2343 1 3055 3057
2344 1 3901 3902
2345 1 3901 3903
2346 1 4201 4202
2347 1 4201 4203
2348 2 1394 1395
2349 2 858 859
2350 3 858 860
2351 6 858 867
2352 2 398 399
2353 2 398 400
2354 2 398 401
2355 1 3046 3047
2356 1 3046 3048
2357 2 991 992
2358 1 3802 3803
2359 1 3802 3804
2360 1 3589 3590
2361 1 3589 3591
2362 2 1013 1014
2363 2 1013 1015
2364 2 1013 1016
2365 5 1012 1013
2366 4 1012 1017
2367 2 1017 1018
2368 3 1017 1019
2369 1 3688 3689
2370 1 3688 3690
2371 1 3931 3932
2372 1 3931 3933
2373 1 4135 4136
2374 1 4135 4137
2375 1 3724 3725
2376 1 3724 3726
2377 1 4270 4271
2378 1 4270 4272
2379 1 4330 4331
2380 1 4330 4332
2381 2 1019 1020
2382 1 4432 4433
2383 1 4432 4434
2384 2 1006 1007
2385 3 1007 1008
2386 3 1007 1019
2387 6 1007 1012
2388 3 917 918
2389 3 917 929
2390 6 917 922
2391 2 916 917
2392 2 1008 1009
2393 3 1008 1010
2394 6 1008 1017
2395 2 1010 1011
2396 4 1010 1012
2397 6 1010 1019
2398 2 927 928
2399 3 927 929
2400 2 929 930
2401 1 4219 4220
2402 1 4219 4221
2403 1 4381 4382
2404 1 4381 4383
2405 1 4255 4256
2406 1 4255 4257
2407 1 4147 4148
2408 1 4147 4149
2409 1 4453 4454
2410 1 4453 4455
2411 2 1349 1350
2412 2 1347 1348
2413 3 1347 1349
2414 5 1342 1343
2415 4 1342 1347
2416 1 4240 4241
2417 1 4240 4242
2418 2 1343 1344
2419 2 1343 1345
2420 2 1343 1346
2421 1 4315 4316
2422 1 4315 4317
2423 1 1747 1748
2424 1 1747 1749
2425 1 3448 3449
2426 1 3448 3450
2427 1 2638 2639
2428 1 2638 2640
2429 1 3736 3737
2430 1 3736 3738
2431 3 1337 1338
2432 3 1337 1349
2433 6 1337 1342
2434 2 1038 1039
2435 3 1038 1040
2436 6 1038 1047
2437 3 1037 1038
2438 3 1037 1049
2439 6 1037 1042
2440 2 1366 1367
2441 1 3196 3197
2442 1 3196 3198
2443 1 1840 1841
2444 1 1840 1842
2445 1 4363 4364
2446 1 4363 4365
2447 1 3763 3764
2448 1 3763 3765
2449 2 1036 1037
2450 1 1600 1601
2451 1 1600 1602
2452 1 3562 3563
2453 1 3562 3564
2454 1 4426 4427
2455 1 4426 4428
2456 1 3541 3542
2457 1 3541 3543
2458 2 893 894
2459 2 893 895
2460 2 893 896
2461 5 892 893
2462 4 892 897
2463 1 3259 3260
2464 1 3259 3261
2465 1 3343 3344
2466 1 3343 3345
2467 2 878 879
2468 2 878 880
2469 2 878 881
2470 2 890 891
2471 4 890 892
2472 6 890 899
2473 2 269 270
2474 2 1340 1341
2475 4 1340 1342
2476 6 1340 1349
2477 2 1338 1339
2478 3 1338 1340
2479 6 1338 1347
2480 2 974 975
2481 2 1040 1041
2482 4 1040 1042
2483 6 1040 1049
2484 5 1042 1043
2485 4 1042 1047
2486 2 1043 1044
2487 2 1043 1045
2488 2 1043 1046
2489 1 3883 3884
2490 1 3883 3885
2491 2 256 257
2492 5 262 263
2493 4 262 267
2494 3 257 258
2495 3 257 269
2496 6 257 262
2497 2 258 259
2498 3 258 260
2499 6 258 267
2500 2 260 261
2501 4 260 262
2502 6 260 269
2503 1 4054 4055
2504 1 4054 4056
2505 2 500 501
2506 4 500 502
2507 6 500 509
2508 1 4093 4094
2509 1 4093 4095
2510 2 498 499
2511 3 498 500
2512 6 498 507
2513 2 496 497
2514 3 497 498
2515 3 497 509
2516 6 497 502
2517 5 502 503
2518 4 502 507
2519 2 509 510
2520 1 3232 3233
2521 1 3232 3234
2522 5 847 848
2523 4 847 852
2524 2 886 887
2525 2 897 898
2526 3 897 899
2527 2 1049 1050
2528 2 899 900
2529 3 887 888
2530 3 887 899
2531 6 887 892
2532 2 888 889
2533 3 888 890
2534 6 888 897
2535 1 3241 3242
2536 1 3241 3243
2537 2 1047 1048
2538 3 1047 1049
2539 1 3775 3776
2540 1 3775 3777
2541 1 3532 3533
2542 1 3532 3534
2543 1 4285 4286
2544 1 4285 4287
2545 1 3109 3110
2546 1 3109 3111
2547 2 1302 1303
2548 3 1302 1304
2549 5 1297 1298
2550 4 1297 1302
2551 2 1298 1299
2552 2 1298 1300
2553 2 1298 1301
2554 1 3370 3371
2555 1 3370 3372
2556 2 1304 1305
2557 2 1433 1434
2558 2 1433 1435
2559 2 1433 1436
2560 3 1427 1428
2561 3 1427 1439
2562 6 1427 1432
2563 2 1439 1440
2564 2 1437 1438
2565 3 1437 1439
2566 5 1432 1433
2567 4 1432 1437
2568 2 1478 1479
2569 2 1478 1480
2570 2 1478 1481
2571 5 1477 1478
2572 4 1477 1482
2573 2 1426 1427
2574 2 1428 1429
2575 3 1428 1430
2576 6 1428 1437
2577 2 1430 1431
2578 4 1430 1432
2579 6 1430 1439
2580 2 1484 1485
2581 2 1482 1483
2582 3 1482 1484
2583 1 3691 3692
2584 1 3691 3693
2585 1 3400 3401
2586 1 3400 3402
2587 1 4459 4460
2588 1 4459 4461
2589 2 1208 1209
2590 2 1208 1210
2591 2 1208 1211
2592 3 857 858
2593 3 857 869
2594 6 857 862
2595 2 856 857
2596 1 4216 4217
2597 1 4216 4218
2598 2 507 508
2599 3 507 509
2600 1 4261 4262
2601 1 4261 4263
2602 1 2464 2465
2603 1 2464 2466
2604 1 4354 4355
2605 1 4354 4356
2606 1 3460 3461
2607 1 3460 3462
2608 2 1443 1444
2609 3 1443 1445
2610 6 1443 1452
2611 2 1445 1446
2612 4 1445 1447
2613 6 1445 1454
2614 1 3958 3959
2615 1 3958 3960
2616 1 3553 3554
2617 1 3553 3555
2618 1 4348 4349
2619 1 4348 4350
2620 1 4126 4127
2621 1 4126 4128
2622 1 4090 4091
2623 1 4090 4092
2624 1 3997 3998
2625 1 3997 3999
2626 1 3295 3296
2627 1 3295 3297
2628 1 3349 3350
2629 1 3349 3351
2630 1 4066 4067
2631 1 4066 4068
2632 1 3124 3125
2633 1 3124 3126
2634 1 4399 4400
2635 1 4399 4401
2636 1 3886 3887
2637 1 3886 3888
2638 1 3427 3428
2639 1 3427 3429
2640 1 2986 2987
2641 1 2986 2988
2642 1 4384 4385
2643 1 4384 4386
2644 1 3964 3965
2645 1 3964 3966
2646 2 1295 1296
2647 4 1295 1297
2648 6 1295 1304
2649 2 1475 1476
2650 4 1475 1477
2651 6 1475 1484
2652 2 1471 1472
2653 3 1472 1473
2654 3 1472 1484
2655 6 1472 1477
2656 2 1473 1474
2657 3 1473 1475
2658 6 1473 1482
2659 1 4036 4037
2660 1 4036 4038
2661 1 3262 3263
2662 1 3262 3264
2663 1 3832 3833
2664 1 3832 3834
2665 2 1203 1204
2666 3 1203 1205
2667 6 1203 1212
2668 2 1201 1202
2669 3 1202 1203
2670 3 1202 1214
2671 6 1202 1207
2672 2 1214 1215
2673 2 1212 1213
2674 3 1212 1214
2675 1 4237 4238
2676 1 4237 4239
2677 1 4414 4415
2678 1 4414 4416
2679 2 222 223
2680 3 222 224
2681 2 1051 1052
2682 3 1052 1053
2683 3 1052 1064
2684 6 1052 1057
2685 2 1053 1054
2686 3 1053 1055
2687 6 1053 1062
2688 1 3202 3203
2689 1 3202 3204
2690 2 218 219
2691 2 218 220
2692 2 218 221
2693 2 1062 1063
2694 3 1062 1064
2695 2 1064 1065
2696 5 1057 1058
2697 4 1057 1062
2698 5 217 218
2699 4 217 222
2700 2 867 868
2701 3 867 869
2702 2 128 129
2703 2 128 130
2704 2 128 131
2705 1 3445 3446
2706 1 3445 3447
2707 2 1055 1056
2708 4 1055 1057
2709 6 1055 1064
2710 2 1058 1059
2711 2 1058 1060
2712 2 1058 1061
2713 1 3268 3269
2714 1 3268 3270
2715 1 3118 3119
2716 1 3118 3120
2717 1 4156 4157
2718 1 4156 4158
2719 1 3661 3662
2720 1 3661 3663
2721 5 1132 1133
2722 4 1132 1137
2723 3 1112 1113
2724 3 1112 1124
2725 6 1112 1117
2726 2 1137 1138
2727 3 1137 1139
2728 2 1139 1140
2729 2 1124 1125
2730 3 1127 1128
2731 3 1127 1139
2732 6 1127 1132
2733 2 1128 1129
2734 3 1128 1130
2735 6 1128 1137
2736 1 4153 4154
2737 1 4153 4155
2738 2 1113 1114
2739 3 1113 1115
2740 6 1113 1122
2741 2 1111 1112
2742 1 3028 3029
2743 1 3028 3030
2744 5 1282 1283
2745 4 1282 1287
2746 2 1278 1279
2747 3 1278 1280
2748 6 1278 1287
2749 2 1280 1281
2750 4 1280 1282
2751 6 1280 1289
2752 2 1283 1284
2753 2 1283 1285
2754 2 1283 1286
2755 2 1130 1131
2756 4 1130 1132
2757 6 1130 1139
2758 2 1133 1134
2759 2 1133 1135
2760 2 1133 1136
2761 3 1277 1278
2762 3 1277 1289
2763 6 1277 1282
2764 2 1289 1290
2765 2 1287 1288
2766 3 1287 1289
2767 2 1276 1277
2768 2 224 225
2769 1 2947 2948
2770 1 2947 2949
2771 1 3841 3842
2772 1 3841 3843
2773 2 215 216
2774 4 215 217
2775 6 215 224
2776 1 2113 2114
2777 1 2113 2115
2778 1 3781 3782
2779 1 3781 3783
2780 1 4465 4466
2781 1 4465 4467
2782 2 211 212
2783 3 212 213
2784 3 212 224
2785 6 212 217
2786 1 4102 4103
2787 1 4102 4104
2788 2 1229 1230
2789 2 213 214
2790 3 213 215
2791 6 213 222
2792 1 3490 3491
2793 1 3490 3492
2794 1 2716 2717
2795 1 2716 2718
2796 1 4006 4007
2797 1 4006 4008
2798 1 3133 3134
2799 1 3133 3135
2800 1 4192 4193
2801 1 4192 4194
2802 3 1217 1218
2803 3 1217 1229
2804 6 1217 1222
2805 1 2491 2492
2806 1 2491 2493
2807 1 3613 3614
2808 1 3613 3615
2809 2 1122 1123
2810 3 1122 1124
2811 1 4294 4295
2812 1 4294 4296
2813 1 3433 3434
2814 1 3433 3435
2815 5 1117 1118
2816 4 1117 1122
2817 1 3991 3992
2818 1 3991 3993
2819 1 4279 4280
2820 1 4279 4281
2821 2 1118 1119
2822 2 1118 1120
2823 2 1118 1121
2824 1 2962 2963
2825 1 2962 2964
2826 1 3484 3485
2827 1 3484 3486
2828 1 3016 3017
2829 1 3016 3018
2830 1 3727 3728
2831 1 3727 3729
2832 1 4048 4049
2833 1 4048 4050
2834 1 3838 3839
2835 1 3838 3840
2836 1 3340 3341
2837 1 3340 3342
2838 1 4477 4478
2839 1 4477 4479
2840 1 3307 3308
2841 1 3307 3309
2842 1 3415 3416
2843 1 3415 3417
2844 2 1115 1116
2845 4 1115 1117
2846 6 1115 1124
2847 1 4000 4001
2848 1 4000 4002
2849 1 2977 2978
2850 1 2977 2979
2851 1 3436 3437
2852 1 3436 3438
2853 1 4186 4187
2854 1 4186 4188
2855 2 1216 1217
2856 3 1367 1368
2857 3 1367 1379
2858 6 1367 1372
2859 2 826 827
2860 1 3190 3191
2861 1 3190 3192
2862 1 3847 3848
2863 1 3847 3849
2864 1 2992 2993
2865 1 2992 2994
2866 3 827 828
2867 3 827 839
2868 6 827 832
2869 1 4423 4424
2870 1 4423 4425
2871 1 3115 3116
2872 1 3115 3117
2873 2 875 876
2874 4 875 877
2875 6 875 884
2876 5 877 878
2877 4 877 882
2878 1 4003 4004
2879 1 4003 4005
2880 1 1756 1757
2881 1 1756 1758
2882 2 882 883
2883 3 882 884
2884 1 3160 3161
2885 1 3160 3162
2886 1 3352 3353
2887 1 3352 3354
2888 1 3850 3851
2889 1 3850 3852
2890 1 3364 3365
2891 1 3364 3366
2892 1 3472 3473
2893 1 3472 3474
2894 1 4105 4106
2895 1 4105 4107
2896 2 1248 1249
2897 3 1248 1250
2898 6 1248 1257
2899 2 1250 1251
2900 4 1250 1252
2901 6 1250 1259
2902 1 3913 3914
2903 1 3913 3915
2904 2 1253 1254
2905 2 1253 1255
2906 2 1253 1256
2907 1 3142 3143
2908 1 3142 3144
2909 1 4072 4073
2910 1 4072 4074
2911 2 884 885
2912 5 1252 1253
2913 4 1252 1257
2914 3 872 873
2915 3 872 884
2916 6 872 877
2917 2 953 954
2918 2 953 955
2919 2 953 956
2920 1 4057 4058
2921 1 4057 4059
2922 3 1382 1383
2923 3 1382 1394
2924 6 1382 1387
2925 1 3967 3968
2926 1 3967 3969
2927 1 4273 4274
2928 1 4273 4275
2929 1 1660 1661
2930 1 1660 1662
2931 1 3604 3605
2932 1 3604 3606
2933 2 158 159
2934 2 158 160
2935 2 158 161
2936 1 3970 3971
2937 1 3970 3972
2938 1 2863 2864
2939 1 2863 2865
2940 1 4357 4358
2941 1 4357 4359
2942 1 2479 2480
2943 1 2479 2481
2944 1 3793 3794
2945 1 3793 3795
2946 1 3652 3653
2947 1 3652 3654
2948 2 830 831
2949 4 830 832
2950 6 830 839
2951 2 828 829
2952 3 828 830
2953 6 828 837
2954 2 845 846
2955 4 845 847
2956 6 845 854
2957 1 3070 3071
2958 1 3070 3072
2959 2 998 999
2960 2 998 1000
2961 2 998 1001
2962 5 997 998
2963 4 997 1002
2964 1 3481 3482
2965 1 3481 3483
2966 1 3430 3431
2967 1 3430 3432
2968 3 1487 1488
2969 3 1487 1499
2970 6 1487 1492
2971 2 873 874
2972 3 873 875
2973 6 873 882
2974 2 1488 1489
2975 3 1488 1490
2976 6 1488 1497
2977 1 2458 2459
2978 1 2458 2460
2979 1 4228 4229
2980 1 4228 4230
2981 1 3508 3509
2982 1 3508 3510
2983 2 1490 1491
2984 4 1490 1492
2985 6 1490 1499
2986 1 4234 4235
2987 1 4234 4236
2988 1 4450 4451
2989 1 4450 4452
2990 2 1497 1498
2991 3 1497 1499
2992 2 1499 1500
2993 2 1493 1494
2994 2 1493 1495
2995 2 1493 1496
2996 5 1492 1493
2997 4 1492 1497
2998 3 1292 1293
2999 3 1292 1304
3000 6 1292 1297
3001 2 948 949
3002 3 948 950
3003 6 948 957
3004 2 871 872
3005 2 946 947
3006 2 957 958
3007 3 957 959
3008 2 959 960
3009 3 947 948
3010 3 947 959
3011 6 947 952
3012 2 950 951
3013 4 950 952
3014 6 950 959
3015 5 952 953
3016 4 952 957
3017 2 267 268
3018 3 267 269
3019 1 3007 3008
3020 1 3007 3009
3021 1 3085 3086
3022 1 3085 3087
3023 1 1885 1886
3024 1 1885 1887
3025 1 3013 3014
3026 1 3013 3015
3027 1 3463 3464
3028 1 3463 3465
3029 1 3862 3863
3030 1 3862 3864
3031 1 3529 3530
3032 1 3529 3531
3033 1 3985 3986
3034 1 3985 3987
3035 1 2137 2138
3036 1 2137 2139
3037 1 2272 2273
3038 1 2272 2274
3039 1 4435 4436
3040 1 4435 4437
3041 1 3106 3107
3042 1 3106 3108
3043 1 4177 4178
3044 1 4177 4179
3045 2 582 583
3046 3 582 584
3047 2 1126 1127
3048 2 1486 1487
3049 2 1293 1294
3050 3 1293 1295
3051 6 1293 1302
3052 1 3382 3383
3053 1 3382 3384
3054 1 3199 3200
3055 1 3199 3201
3056 2 1291 1292
3057 1 3625 3626
3058 1 3625 3627
3059 1 3064 3065
3060 1 3064 3066
3061 1 4027 4028
3062 1 4027 4029
3063 1 3271 3272
3064 1 3271 3273
3065 1 3598 3599
3066 1 3598 3600
3067 1 3826 3827
3068 1 3826 3828
3069 1 4405 4406
3070 1 4405 4407
3071 1 1618 1619
3072 1 1618 1620
3073 1 2173 2174
3074 1 2173 2175
3075 3 512 513
3076 3 512 524
3077 6 512 517
3078 2 524 525
3079 2 511 512
3080 1 4009 4010
3081 1 4009 4011
3082 1 2995 2996
3083 1 2995 2997
3084 1 4039 4040
3085 1 4039 4041
3086 1 3358 3359
3087 1 3358 3360
3088 1 4150 4151
3089 1 4150 4152
3090 1 3523 3524
3091 1 3523 3525
3092 1 4429 4430
3093 1 4429 4431
3094 1 3904 3905
3095 1 3904 3906
3096 1 3700 3701
3097 1 3700 3702
3098 1 3937 3938
3099 1 3937 3939
3100 1 2845 2846
3101 1 2845 2847
3102 2 1173 1174
3103 3 1173 1175
3104 6 1173 1182
3105 2 1171 1172
3106 3 1172 1173
3107 3 1172 1184
3108 6 1172 1177
3109 1 3298 3299
3110 1 3298 3300
3111 2 1184 1185
3112 5 1327 1328
3113 4 1327 1332
3114 2 1328 1329
3115 2 1328 1330
3116 2 1328 1331
3117 2 1332 1333
3118 3 1332 1334
3119 2 1334 1335
3120 2 1325 1326
3121 4 1325 1327
3122 6 1325 1334
3123 2 1182 1183
3124 3 1182 1184
3125 2 1175 1176
3126 4 1175 1177
3127 6 1175 1184
3128 5 1177 1178
3129 4 1177 1182
3130 1 4030 4031
3131 1 4030 4032
3132 2 1238 1239
3133 2 1238 1240
3134 2 1238 1241
3135 2 1306 1307
3136 2 1233 1234
3137 3 1233 1235
3138 6 1233 1242
3139 3 1232 1233
3140 3 1232 1244
3141 6 1232 1237
3142 2 1231 1232
3143 2 1235 1236
3144 4 1235 1237
3145 6 1235 1244
3146 2 1244 1245
3147 2 1242 1243
3148 3 1242 1244
3149 5 1237 1238
3150 4 1237 1242
3151 3 1307 1308
3152 3 1307 1319
3153 6 1307 1312
3154 1 4189 4190
3155 1 4189 4191
3156 2 513 514
3157 3 513 515
3158 6 513 522
3159 1 4258 4259
3160 1 4258 4260
3161 1 3253 3254
3162 1 3253 3255
3163 1 3325 3326
3164 1 3325 3327
3165 1 1996 1997
3166 1 1996 1998
3167 1 4069 4070
3168 1 4069 4071
3169 1 3559 3560
3170 1 3559 3561
3171 1 4444 4445
3172 1 4444 4446
3173 1 3094 3095
3174 1 3094 3096
3175 1 3760 3761
3176 1 3760 3762
3177 1 4195 4196
3178 1 4195 4197
3179 1 3820 3821
3180 1 3820 3822
3181 1 3784 3785
3182 1 3784 3786
3183 1 3487 3488
3184 1 3487 3489
3185 1 3247 3248
3186 1 3247 3249
3187 1 3592 3593
3188 1 3592 3594
3189 2 1178 1179
3190 2 1178 1180
3191 2 1178 1181
3192 1 3022 3023
3193 1 3022 3024
3194 2 903 904
3195 3 903 905
3196 6 903 912
3197 2 912 913
3198 3 912 914
3199 5 907 908
3200 4 907 912
3201 2 905 906
3202 4 905 907
3203 6 905 914
3204 1 4495 4496
3205 1 4495 4497
3206 2 908 909
3207 2 908 910
3208 2 908 911
3209 2 914 915
3210 3 902 903
3211 3 902 914
3212 6 902 907
3213 2 1094 1095
3214 2 1092 1093
3215 3 1092 1094
3216 2 901 902
3217 1 4309 4310
3218 1 4309 4311
3219 2 839 840
3220 1 3706 3707
3221 1 3706 3708
3222 1 3646 3647
3223 1 3646 3648
3224 2 1141 1142
3225 2 1154 1155
3226 3 1142 1143
3227 3 1142 1154
3228 6 1142 1147
3229 5 1147 1148
3230 4 1147 1152
3231 2 1143 1144
3232 3 1143 1145
3233 6 1143 1152
3234 2 1145 1146
3235 4 1145 1147
3236 6 1145 1154
3237 1 3787 3788
3238 1 3787 3789
3239 1 3805 3806
3240 1 3805 3807
3241 2 1152 1153
3242 3 1152 1154
3243 1 3406 3407
3244 1 3406 3408
3245 1 3091 3092
3246 1 3091 3093
3247 1 3421 3422
3248 1 3421 3423
3249 2 1148 1149
3250 2 1148 1150
3251 2 1148 1151
3252 2 1083 1084
3253 3 1083 1085
3254 6 1083 1092
3255 3 1082 1083
3256 3 1082 1094
3257 6 1082 1087
3258 2 1081 1082
3259 1 2983 2984
3260 1 2983 2985
3261 1 3751 3752
3262 1 3751 3753
3263 2 1085 1086
3264 4 1085 1087
3265 6 1085 1094
3266 1 3403 3404
3267 1 3403 3405
3268 1 3274 3275
3269 1 3274 3276
3270 1 3889 3890
3271 1 3889 3891
3272 1 3595 3596
3273 1 3595 3597
3274 5 1087 1088
3275 4 1087 1092
3276 2 1088 1089
3277 2 1088 1090
3278 2 1088 1091
3279 1 4288 4289
3280 1 4288 4290
3281 2 1469 1470
3282 2 1456 1457
3283 3 1457 1458
3284 3 1457 1469
3285 6 1457 1462
3286 2 1458 1459
3287 3 1458 1460
3288 6 1458 1467
3289 1 3034 3035
3290 1 3034 3036
3291 2 1467 1468
3292 3 1467 1469
3293 5 1462 1463
3294 4 1462 1467
3295 2 1460 1461
3296 4 1460 1462
3297 6 1460 1469
3298 1 3877 3878
3299 1 3877 3879
3300 2 1259 1260
3301 2 1257 1258
3302 3 1257 1259
3303 2 1246 1247
3304 3 1247 1248
3305 3 1247 1259
3306 6 1247 1252
3307 3 962 963
3308 3 962 974
3309 6 962 967
3310 3 992 993
3311 3 992 1004
3312 6 992 997
3313 2 837 838
3314 3 837 839
3315 1 2884 2885
3316 1 2884 2886
3317 5 832 833
3318 4 832 837
3319 1 4144 4145
3320 1 4144 4146
3321 1 4159 4160
3322 1 4159 4161
3323 2 995 996
3324 4 995 997
3325 6 995 1004
3326 2 993 994
3327 3 993 995
3328 6 993 1002
3329 1 3301 3302
3330 1 3301 3303
3331 1 3571 3572
3332 1 3571 3573
3333 2 833 834
3334 2 833 835
3335 2 833 836
3336 1 3475 3476
3337 1 3475 3477
3338 1 4081 4082
3339 1 4081 4083
3340 1 4174 4175
3341 1 4174 4176
3342 1 4456 4457
3343 1 4456 4458
3344 1 3607 3608
3345 1 3607 3609
3346 1 4051 4052
3347 1 4051 4053
3348 2 1096 1097
3349 3 1097 1098
3350 3 1097 1109
3351 6 1097 1102
3352 2 1109 1110
3353 2 1100 1101
3354 4 1100 1102
3355 6 1100 1109
3356 2 1098 1099
3357 3 1098 1100
3358 6 1098 1107
3359 5 1102 1103
3360 4 1102 1107
3361 1 4075 4076
3362 1 4075 4077
3363 1 4141 4142
3364 1 4141 4143
3365 1 3694 3695
3366 1 3694 3696
3367 1 3373 3374
3368 1 3373 3375
3369 1 3235 3236
3370 1 3235 3237
3371 1 3073 3074
3372 1 3073 3075
3373 1 4096 4097
3374 1 4096 4098
3375 1 3076 3077
3376 1 3076 3078
3377 1 2974 2975
3378 1 2974 2976
3379 1 4345 4346
3380 1 4345 4347
3381 2 1103 1104
3382 2 1103 1105
3383 2 1103 1106
3384 1 3277 3278
3385 1 3277 3279
3386 2 1107 1108
3387 3 1107 1109
3388 2 1218 1219
3389 3 1218 1220
3390 6 1218 1227
3391 1 3163 3164
3392 1 3163 3165
3393 1 3601 3602
3394 1 3601 3603
3395 1 4222 4223
3396 1 4222 4224
3397 2 522 523
3398 3 522 524
3399 1 3682 3683
3400 1 3682 3684
3401 5 517 518
3402 4 517 522
3403 2 518 519
3404 2 518 520
3405 2 518 521
3406 1 3586 3587
3407 1 3586 3588
3408 1 3004 3005
3409 1 3004 3006
3410 1 2944 2945
3411 1 2944 2946
3412 1 3157 3158
3413 1 3157 3159
3414 1 3550 3551
3415 1 3550 3552
3416 1 3988 3989
3417 1 3988 3990
3418 1 1609 1610
3419 1 1609 1611
3420 1 3331 3332
3421 1 3331 3333
3422 1 4282 4283
3423 1 4282 4284
3424 1 3949 3950
3425 1 3949 3951
3426 1 4045 4046
3427 1 4045 4047
3428 1 3526 3527
3429 1 3526 3528
3430 1 4213 4214
3431 1 4213 4215
3432 1 3979 3980
3433 1 3979 3981
3434 1 3223 3224
3435 1 3223 3225
3436 1 3973 3974
3437 1 3973 3975
3438 1 3565 3566
3439 1 3565 3567
3440 1 2938 2939
3441 1 2938 2940
3442 2 1308 1309
3443 3 1308 1310
3444 6 1308 1317
3445 2 1310 1311
3446 4 1310 1312
3447 6 1310 1319
3448 2 1317 1318
3449 3 1317 1319
3450 5 1312 1313
3451 4 1312 1317
3452 2 1313 1314
3453 2 1313 1315
3454 2 1313 1316
3455 2 1319 1320
3456 2 387 388
3457 3 387 389
3458 1 2167 2168
3459 1 2167 2169
3460 2 380 381
3461 4 380 382
3462 6 380 389
3463 5 382 383
3464 4 382 387
3465 2 586 587
3466 1 3898 3899
3467 1 3898 3900
3468 2 383 384
3469 2 383 385
3470 2 383 386
3471 1 3520 3521
3472 1 3520 3522
3473 1 3583 3584
3474 1 3583 3585
3475 1 1555 1556
3476 1 1555 1557
3477 1 3388 3389
3478 1 3388 3390
3479 1 4447 4448
3480 1 4447 4449
3481 1 3208 3209
3482 1 3208 3210
3483 1 3757 3758
3484 1 3757 3759
3485 1 2773 2774
3486 1 2773 2775
3487 1 1705 1706
3488 1 1705 1707
3489 1 3367 3368
3490 1 3367 3369
3491 1 3628 3629
3492 1 3628 3630
3493 2 1188 1189
3494 3 1188 1190
3495 6 1188 1197
3496 2 1323 1324
3497 3 1323 1325
3498 6 1323 1332
3499 3 1322 1323
3500 3 1322 1334
3501 6 1322 1327
3502 1 3025 3026
3503 1 3025 3027
3504 1 4210 4211
3505 1 4210 4212
3506 1 3655 3656
3507 1 3655 3657
3508 1 4129 4130
3509 1 4129 4131
3510 2 1321 1322
3511 1 1768 1769
3512 1 1768 1770
3513 1 2110 2111
3514 1 2110 2112
3515 1 3355 3356
3516 1 3355 3357
3517 1 4375 4376
3518 1 4375 4377
3519 1 4243 4244
3520 1 4243 4245
3521 1 3685 3686
3522 1 3685 3687
3523 1 3982 3983
3524 1 3982 3984
3525 1 4318 4319
3526 1 4318 4320
3527 1 3304 3305
3528 1 3304 3306
3529 1 3733 3734
3530 1 3733 3735
3531 1 4180 4181
3532 1 4180 4182
3533 1 3748 3749
3534 1 3748 3750
3535 1 2809 2810
3536 1 2809 2811
3537 1 3478 3479
3538 1 3478 3480
3539 1 2668 2669
3540 1 2668 2670
3541 1 4078 4079
3542 1 4078 4080
3543 1 3103 3104
3544 1 3103 3105
3545 1 3334 3335
3546 1 3334 3336
3547 1 4486 4487
3548 1 4486 4488
3549 1 4012 4013
3550 1 4012 4014
3551 1 4198 4199
3552 1 4198 4200
3553 1 3616 3617
3554 1 3616 3618
3555 2 1190 1191
3556 4 1190 1192
3557 6 1190 1199
3558 5 1192 1193
3559 4 1192 1197
3560 2 1193 1194
3561 2 1193 1195
3562 2 1193 1196
3563 2 1199 1200
3564 2 1197 1198
3565 3 1197 1199
3566 1 3679 3680
3567 1 3679 3681
3568 3 1187 1188
3569 3 1187 1199
3570 6 1187 1192
3571 1 3079 3080
3572 1 3079 3081
3573 2 1186 1187
3574 1 3100 3101
3575 1 3100 3102
3576 1 3610 3611
3577 1 3610 3612
3578 1 3577 3578
3579 1 3577 3579
3580 1 3871 3872
3581 1 3871 3873
3582 1 3922 3923
3583 1 3922 3924
3584 2 1355 1356
3585 4 1355 1357
3586 6 1355 1364
3587 2 1358 1359
3588 2 1358 1360
3589 2 1358 1361
3590 2 963 964
3591 3 963 965
3592 6 963 972
3593 1 3496 3497
3594 1 3496 3498
3595 2 843 844
3596 3 843 845
3597 6 843 852
3598 1 2146 2147
3599 1 2146 2148
3600 1 3715 3716
3601 1 3715 3717
3602 1 3556 3557
3603 1 3556 3558
3604 1 2179 2180
3605 1 2179 2181
3606 1 3148 3149
3607 1 3148 3150
3608 1 3037 3038
3609 1 3037 3039
3610 1 3439 3440
3611 1 3439 3441
3612 1 4402 4403
3613 1 4402 4404
3614 1 4120 4121
3615 1 4120 4122
3616 1 3166 3167
3617 1 3166 3168
3618 1 3670 3671
3619 1 3670 3672
3620 1 4183 4184
3621 1 4183 4185
3622 1 3643 3644
3623 1 3643 3645
3624 1 1837 1838
3625 1 1837 1839
3626 2 1463 1464
3627 2 1463 1465
3628 2 1463 1466
3629 1 3454 3455
3630 1 3454 3456
3631 1 3514 3515
3632 1 3514 3516
3633 1 4015 4016
3634 1 4015 4017
3635 1 4060 4061
3636 1 4060 4062
3637 1 3730 3731
3638 1 3730 3732
3639 2 1364 1365
3640 3 1352 1353
3641 3 1352 1364
3642 6 1352 1357
3643 5 1357 1358
3644 4 1357 1362
3645 2 1353 1354
3646 3 1353 1355
3647 6 1353 1362
3648 2 1351 1352
3649 1 3337 3338
3650 1 3337 3339
3651 1 4360 4361
3652 1 4360 4362
3653 2 1362 1363
3654 3 1362 1364
3655 1 3466 3467
3656 1 3466 3468
3657 2 263 264
3658 2 263 265
3659 2 263 266
3660 2 584 585
3661 1 3574 3575
3662 1 3574 3576
3663 1 4300 4301
3664 1 4300 4302
3665 1 4024 4025
3666 1 4024 4026
3667 1 3640 3641
3668 1 3640 3642
3669 1 3535 3536
3670 1 3535 3537
3671 1 4264 4265
3672 1 4264 4266
3673 1 3214 3215
3674 1 3214 3216
3675 1 1786 1787
3676 1 1786 1788
3677 2 1028 1029
3678 2 1028 1030
3679 2 1028 1031
3680 2 1025 1026
3681 4 1025 1027
3682 6 1025 1034
3683 2 1023 1024
3684 3 1023 1025
3685 6 1023 1032
3686 5 1027 1028
3687 4 1027 1032
3688 3 1022 1023
3689 3 1022 1034
3690 6 1022 1027
3691 1 3946 3947
3692 1 3946 3948
3693 2 1021 1022
3694 1 3097 3098
3695 1 3097 3099
3696 1 3859 3860
3697 1 3859 3861
3698 1 4084 4085
3699 1 4084 4086
3700 1 3835 3836
3701 1 3835 3837
3702 1 3721 3722
3703 1 3721 3723
3704 1 4063 4064
3705 1 4063 4065
3706 1 3292 3293
3707 1 3292 3294
3708 1 4468 4469
3709 1 4468 4470
3710 1 3667 3668
3711 1 3667 3669
3712 1 4033 4034
3713 1 4033 4035
3714 1 2989 2990
3715 1 2989 2991
3716 1 3709 3710
3717 1 3709 3711
3718 1 3892 3893
3719 1 3892 3894
3720 1 3229 3230
3721 1 3229 3231
3722 1 3778 3779
3723 1 3778 3780
3724 2 1381 1382
3725 2 1227 1228
3726 3 1227 1229
3727 5 967 968
3728 4 967 972
3729 1 3976 3977
3730 1 3976 3978
3731 2 1032 1033
3732 3 1032 1034
3733 2 1034 1035
3734 1 3391 3392
3735 1 3391 3393
3736 1 4087 4088
3737 1 4087 4089
3738 1 4132 4133
3739 1 4132 4134
3740 1 2968 2969
3741 1 2968 2970
3742 1 4168 4169
3743 1 4168 4170
3744 1 2722 2723
3745 1 2722 2724
3746 1 3205 3206
3747 1 3205 3207
3748 1 4390 4391
3749 1 4390 4392
3750 1 3409 3410
3751 1 3409 3411
3752 1 4297 4298
3753 1 4297 4299
3754 1 2941 2942
3755 1 2941 2943
3756 1 4378 4379
3757 1 4378 4380
3758 1 3178 3179
3759 1 3178 3180
3760 1 3673 3674
3761 1 3673 3675
3762 2 968 969
3763 2 968 970
3764 2 968 971
3765 2 931 932
3766 3 932 933
3767 3 932 944
3768 6 932 937
3769 2 935 936
3770 4 935 937
3771 6 935 944
3772 2 933 934
3773 3 933 935
3774 6 933 942
3775 5 937 938
3776 4 937 942
3777 2 938 939
3778 2 938 940
3779 2 938 941
3780 2 944 945
3781 2 942 943
3782 3 942 944
3783 2 1396 1397
3784 2 1409 1410
3785 3 1397 1398
3786 3 1397 1409
3787 6 1397 1402
3788 2 1398 1399
3789 3 1398 1400
3790 6 1398 1407
3791 2 1400 1401
3792 4 1400 1402
3793 6 1400 1409
3794 2 1407 1408
3795 3 1407 1409
3796 5 1402 1403
3797 4 1402 1407
3798 2 1403 1404
3799 2 1403 1405
3800 2 1403 1406

Angles

1 3 182 183 184
2 4 182 183 185
3 3 184 183 185
4 3 183 185 186
5 4 183 185 187
6 3 186 185 187
7 4 182 194 192
8 3 182 194 195
9 3 192 194 195
10 5 187 188 189
11 5 187 188 190
12 5 187 188 191
13 2 189 188 190
14 2 189 188 191
15 2 190 188 191
16 4 185 187 188
17 4 185 187 192
18 4 188 187 192
19 3 181 182 183
20 3 181 182 194
21 4 183 182 194
22 3 187 192 193
23 4 187 192 194
24 3 193 192 194
25 4 812 824 822
26 3 812 824 825
27 3 822 824 825
28 3 196 197 198
29 3 196 197 209
30 4 198 197 209
31 3 197 198 199
32 4 197 198 200
33 3 199 198 200
34 3 811 812 813
35 3 811 812 824
36 4 813 812 824
37 3 813 815 816
38 4 813 815 817
39 3 816 815 817
40 3 812 813 814
41 4 812 813 815
42 3 814 813 815
43 4 197 209 207
44 3 197 209 210
45 3 207 209 210
46 3 817 822 823
47 4 817 822 824
48 3 823 822 824
49 5 817 818 819
50 5 817 818 820
51 5 817 818 821
52 2 819 818 820
53 2 819 818 821
54 2 820 818 821
55 4 815 817 818
56 4 815 817 822
57 4 818 817 822
58 3 202 207 208
59 4 202 207 209
60 3 208 207 209
61 4 200 202 203
62 4 200 202 207
63 4 203 202 207
64 1 2813 2812 2814
65 1 2195 2194 2196
66 1 2423 2422 2424
67 1 1916 1915 1917
68 1 2807 2806 2808
69 1 2222 2221 2223
70 1 2297 2296 2298
71 1 2393 2392 2394
72 1 2054 2053 2055
73 1 2780 2779 2781
74 1 2108 2107 2109
75 1 1634 1633 1635
76 1 2081 2080 2082
77 1 2429 2428 2430
78 4 35 37 38
79 4 35 37 42
80 4 38 37 42
81 5 37 38 39
82 5 37 38 40
83 5 37 38 41
84 2 39 38 40
85 2 39 38 41
86 2 40 38 41
87 3 37 42 43
88 4 37 42 44
89 3 43 42 44
90 4 32 44 42
91 3 32 44 45
92 3 42 44 45
93 3 33 35 36
94 4 33 35 37
95 3 36 35 37
96 1 1871 1870 1872
97 3 31 32 33
98 3 31 32 44
99 4 33 32 44
100 3 32 33 34
101 4 32 33 35
102 3 34 33 35
103 1 1772 1771 1773
104 1 1664 1663 1665
105 1 2759 2758 2760
106 4 122 134 132
107 3 122 134 135
108 3 132 134 135
109 3 121 122 123
110 3 121 122 134
111 4 123 122 134
112 4 170 172 173
113 4 170 172 177
114 4 173 172 177
115 1 2894 2893 2895
116 5 202 203 204
117 5 202 203 205
118 5 202 203 206
119 2 204 203 205
120 2 204 203 206
121 2 205 203 206
122 1 2579 2578 2580
123 1 2090 2089 2091
124 1 2768 2767 2769
125 1 2456 2455 2457
126 1 1931 1930 1932
127 1 1892 1891 1893
128 1 2651 2650 2652
129 1 2657 2656 2658
130 1 2615 2614 2616
131 1 1952 1951 1953
132 1 1646 1645 1647
133 1 1688 1687 1689
134 1 2342 2341 2343
135 1 1832 1831 1833
136 1 2339 2338 2340
137 1 2690 2689 2691
138 1 2402 2401 2403
139 1 2420 2419 2421
140 5 1372 1373 1374
141 5 1372 1373 1375
142 5 1372 1373 1376
143 2 1374 1373 1375
144 2 1374 1373 1376
145 2 1375 1373 1376
146 1 2834 2833 2835
147 3 1368 1370 1371
148 4 1368 1370 1372
149 3 1371 1370 1372
150 4 1370 1372 1373
151 4 1370 1372 1377
152 4 1373 1372 1377
153 3 1367 1368 1369
154 4 1367 1368 1370
155 3 1369 1368 1370
156 1 3068 3067 3069
157 3 1372 1377 1378
158 4 1372 1377 1379
159 3 1378 1377 1379
160 4 1367 1379 1377
161 3 1367 1379 1380
162 3 1377 1379 1380
163 5 982 983 984
164 5 982 983 985
165 5 982 983 986
166 2 984 983 985
167 2 984 983 986
168 2 985 983 986
169 4 980 982 983
170 4 980 982 987
171 4 983 982 987
172 3 978 980 981
173 4 978 980 982
174 3 981 980 982
175 4 977 989 987
176 3 977 989 990
177 3 987 989 990
178 3 982 987 988
179 4 982 987 989
180 3 988 987 989
181 3 976 977 978
182 3 976 977 989
183 4 978 977 989
184 3 977 978 979
185 4 977 978 980
186 3 979 978 980
187 5 1267 1268 1269
188 5 1267 1268 1270
189 5 1267 1268 1271
190 2 1269 1268 1270
191 2 1269 1268 1271
192 2 1270 1268 1271
193 1 4442 4441 4443
194 4 1442 1454 1452
195 3 1442 1454 1455
196 3 1452 1454 1455
197 1 2858 2857 2859
198 5 487 488 489
199 5 487 488 490
200 5 487 488 491
201 2 489 488 490
202 2 489 488 491
203 2 490 488 491
204 3 482 483 484
205 4 482 483 485
206 3 484 483 485
207 3 481 482 483
208 3 481 482 494
209 4 483 482 494
210 3 487 492 493
211 4 487 492 494
212 3 493 492 494
213 4 485 487 488
214 4 485 487 492
215 4 488 487 492
216 3 483 485 486
217 4 483 485 487
218 3 486 485 487
219 4 482 494 492
220 3 482 494 495
221 3 492 494 495
222 1 1745 1744 1746
223 1 1679 1678 1680
224 1 2906 2905 2907
225 1 2258 2257 2259
226 1 2618 2617 2619
227 1 2681 2680 2682
228 1 2237 2236 2238
229 1 1961 1960 1962
230 1 1550 1549 1551
231 1 2216 2215 2217
232 1 1919 1918 1920
233 1 1844 1843 1845
234 1 2519 2518 2520
235 1 1925 1924 1926
236 4 407 419 417
237 3 407 419 420
238 3 417 419 420
239 3 406 407 408
240 3 406 407 419
241 4 408 407 419
242 1 1613 1612 1614
243 1 1628 1627 1629
244 3 407 408 409
245 4 407 408 410
246 3 409 408 410
247 1 2750 2749 2751
248 3 412 417 418
249 4 412 417 419
250 3 418 417 419
251 3 408 410 411
252 4 408 410 412
253 3 411 410 412
254 4 410 412 413
255 4 410 412 417
256 4 413 412 417
257 1 2795 2794 2796
258 1 1946 1945 1947
259 1 4292 4291 4293
260 1 2066 2065 2067
261 4 140 142 143
262 4 140 142 147
263 4 143 142 147
264 5 142 143 144
265 5 142 143 145
266 5 142 143 146
267 2 144 143 145
268 2 144 143 146
269 2 145 143 146
270 3 142 147 148
271 4 142 147 149
272 3 148 147 149
273 3 138 140 141
274 4 138 140 142
275 3 141 140 142
276 3 137 138 139
277 4 137 138 140
278 3 139 138 140
279 3 136 137 138
280 3 136 137 149
281 4 138 137 149
282 1 2336 2335 2337
283 1 2876 2875 2877
284 1 1703 1702 1704
285 1 2477 2476 2478
286 1 2171 2170 2172
287 1 2036 2035 2037
288 1 1850 1849 1851
289 1 2069 2068 2070
290 1 1517 1516 1518
291 1 2531 2530 2532
292 1 1742 1741 1743
293 1 1883 1882 1884
294 1 1718 1717 1719
295 3 153 155 156
296 4 153 155 157
297 3 156 155 157
298 3 152 153 154
299 4 152 153 155
300 3 154 153 155
301 4 155 157 158
302 4 155 157 162
303 4 158 157 162
304 3 151 152 153
305 3 151 152 164
306 4 153 152 164
307 3 157 162 163
308 4 157 162 164
309 3 163 162 164
310 4 152 164 162
311 3 152 164 165
312 3 162 164 165
313 3 247 252 253
314 4 247 252 254
315 3 253 252 254
316 1 2606 2605 2607
317 1 2135 2134 2136
318 4 245 247 248
319 4 245 247 252
320 4 248 247 252
321 1 1979 1978 1980
322 4 242 254 252
323 3 242 254 255
324 3 252 254 255
325 1 2159 2158 2160
326 1 2219 2218 2220
327 1 3818 3817 3819
328 1 2828 2827 2829
329 1 2162 2161 2163
330 1 2609 2608 2610
331 1 1988 1987 1989
332 1 2516 2515 2517
333 1 1934 1933 1935
334 1 2789 2788 2790
335 1 4124 4123 4125
336 1 3227 3226 3228
337 1 2687 2686 2688
338 1 1670 1669 1671
339 1 2093 2092 2094
340 1 1598 1597 1599
341 1 1859 1858 1860
342 1 2204 2203 2205
343 1 2228 2227 2229
344 1 1568 1567 1569
345 1 2369 2368 2370
346 1 1874 1873 1875
347 1 2693 2692 2694
348 1 2711 2710 2712
349 1 2507 2506 2508
350 1 2666 2665 2667
351 1 2573 2572 2574
352 3 557 558 559
353 4 557 558 560
354 3 559 558 560
355 3 168 170 171
356 4 168 170 172
357 3 171 170 172
358 5 172 173 174
359 5 172 173 175
360 5 172 173 176
361 2 174 173 175
362 2 174 173 176
363 2 175 173 176
364 1 2534 2533 2535
365 3 783 785 786
366 4 783 785 787
367 3 786 785 787
368 3 166 167 168
369 3 166 167 179
370 4 168 167 179
371 1 2285 2284 2286
372 3 46 47 48
373 3 46 47 59
374 4 48 47 59
375 3 52 57 58
376 4 52 57 59
377 3 58 57 59
378 4 47 59 57
379 3 47 59 60
380 3 57 59 60
381 4 50 52 53
382 4 50 52 57
383 4 53 52 57
384 3 167 168 169
385 4 167 168 170
386 3 169 168 170
387 3 48 50 51
388 4 48 50 52
389 3 51 50 52
390 3 47 48 49
391 4 47 48 50
392 3 49 48 50
393 5 52 53 54
394 5 52 53 55
395 5 52 53 56
396 2 54 53 55
397 2 54 53 56
398 2 55 53 56
399 4 707 719 717
400 3 707 719 720
401 3 717 719 720
402 3 706 707 708
403 3 706 707 719
404 4 708 707 719
405 3 782 783 784
406 4 782 783 785
407 3 784 783 785
408 1 2762 2761 2763
409 4 167 179 177
410 3 167 179 180
411 3 177 179 180
412 3 172 177 178
413 4 172 177 179
414 3 178 177 179
415 1 1541 1540 1542
416 1 2804 2803 2805
417 1 1937 1936 1938
418 1 2528 2527 2529
419 1 2012 2011 2013
420 1 1529 1528 1530
421 1 1604 1603 1605
422 1 2240 2239 2241
423 1 3632 3631 3633
424 1 3419 3418 3420
425 1 1739 1738 1740
426 5 847 848 849
427 5 847 848 850
428 5 847 848 851
429 2 849 848 850
430 2 849 848 851
431 2 850 848 851
432 1 3347 3346 3348
433 1 3881 3880 3882
434 1 2738 2737 2739
435 1 1766 1765 1767
436 3 586 587 588
437 3 586 587 599
438 4 588 587 599
439 1 1964 1963 1965
440 1 1823 1822 1824
441 3 712 717 718
442 4 712 717 719
443 3 718 717 719
444 4 710 712 713
445 4 710 712 717
446 4 713 712 717
447 1 2663 2662 2664
448 3 707 708 709
449 4 707 708 710
450 3 709 708 710
451 3 708 710 711
452 4 708 710 712
453 3 711 710 712
454 5 712 713 714
455 5 712 713 715
456 5 712 713 716
457 2 714 713 715
458 2 714 713 716
459 2 715 713 716
460 5 532 533 534
461 5 532 533 535
462 5 532 533 536
463 2 534 533 535
464 2 534 533 536
465 2 535 533 536
466 3 528 530 531
467 4 528 530 532
468 3 531 530 532
469 4 530 532 533
470 4 530 532 537
471 4 533 532 537
472 3 532 537 538
473 4 532 537 539
474 3 538 537 539
475 4 527 539 537
476 3 527 539 540
477 3 537 539 540
478 3 391 392 393
479 3 391 392 404
480 4 393 392 404
481 1 2165 2164 2166
482 4 395 397 398
483 4 395 397 402
484 4 398 397 402
485 1 1580 1579 1581
486 1 2861 2860 2862
487 1 2006 2005 2007
488 1 1538 1537 1539
489 1 2144 2143 2145
490 1 1715 1714 1716
491 1 2915 2914 2916
492 1 2024 2023 2025
493 1 2132 2131 2133
494 3 393 395 396
495 4 393 395 397
496 3 396 395 397
497 3 76 77 78
498 3 76 77 89
499 4 78 77 89
500 3 392 393 394
501 4 392 393 395
502 3 394 393 395
503 3 77 78 79
504 4 77 78 80
505 3 79 78 80
506 4 77 89 87
507 3 77 89 90
508 3 87 89 90
509 1 4268 4267 4269
510 3 472 477 478
511 4 472 477 479
512 3 478 477 479
513 4 467 479 477
514 3 467 479 480
515 3 477 479 480
516 1 1502 1501 1503
517 1 2594 2593 2595
518 3 527 528 529
519 4 527 528 530
520 3 529 528 530
521 3 526 527 528
522 3 526 527 539
523 4 528 527 539
524 1 2312 2311 2313
525 1 2327 2326 2328
526 1 2345 2344 2346
527 3 277 282 283
528 4 277 282 284
529 3 283 282 284
530 4 272 284 282
531 3 272 284 285
532 3 282 284 285
533 3 271 272 273
534 3 271 272 284
535 4 273 272 284
536 3 272 273 274
537 4 272 273 275
538 3 274 273 275
539 1 2141 2140 2142
540 4 275 277 278
541 4 275 277 282
542 4 278 277 282
543 3 273 275 276
544 4 273 275 277
545 3 276 275 277
546 1 1793 1792 1794
547 1 2030 2029 2031
548 3 2 3 4
549 4 2 3 5
550 3 4 3 5
551 1 2309 2308 2310
552 1 1595 1594 1596
553 5 412 413 414
554 5 412 413 415
555 5 412 413 416
556 2 414 413 415
557 2 414 413 416
558 2 415 413 416
559 1 1784 1783 1785
560 1 1811 1810 1812
561 1 3854 3853 3855
562 1 2771 2770 2772
563 3 107 108 109
564 4 107 108 110
565 3 109 108 110
566 1 3398 3397 3399
567 1 2189 2188 2190
568 1 4322 4321 4323
569 1 1673 1672 1674
570 1 3020 3019 3021
571 3 1218 1220 1221
572 4 1218 1220 1222
573 3 1221 1220 1222
574 4 137 149 147
575 3 137 149 150
576 3 147 149 150
577 4 470 472 473
578 4 470 472 477
579 4 473 472 477
580 3 468 470 471
581 4 468 470 472
582 3 471 470 472
583 3 466 467 468
584 3 466 467 479
585 4 468 467 479
586 3 467 468 469
587 4 467 468 470
588 3 469 468 470
589 5 472 473 474
590 5 472 473 475
591 5 472 473 476
592 2 474 473 475
593 2 474 473 476
594 2 475 473 476
595 1 2930 2929 2931
596 1 1544 1543 1545
597 1 2561 2560 2562
598 3 676 677 678
599 3 676 677 689
600 4 678 677 689
601 3 677 678 679
602 4 677 678 680
603 3 679 678 680
604 1 1730 1729 1731
605 1 1958 1957 1959
606 3 682 687 688
607 4 682 687 689
608 3 688 687 689
609 4 680 682 683
610 4 680 682 687
611 4 683 682 687
612 3 678 680 681
613 4 678 680 682
614 3 681 680 682
615 5 682 683 684
616 5 682 683 685
617 5 682 683 686
618 2 684 683 685
619 2 684 683 686
620 2 685 683 686
621 1 1967 1966 1968
622 3 1 2 3
623 3 1 2 14
624 4 3 2 14
625 5 337 338 339
626 5 337 338 340
627 5 337 338 341
628 2 339 338 340
629 2 339 338 341
630 2 340 338 341
631 3 108 110 111
632 4 108 110 112
633 3 111 110 112
634 3 106 107 108
635 3 106 107 119
636 4 108 107 119
637 1 2426 2425 2427
638 4 107 119 117
639 3 107 119 120
640 3 117 119 120
641 3 112 117 118
642 4 112 117 119
643 3 118 117 119
644 1 2384 2383 2385
645 4 110 112 113
646 4 110 112 117
647 4 113 112 117
648 3 333 335 336
649 4 333 335 337
650 3 336 335 337
651 4 335 337 338
652 4 335 337 342
653 4 338 337 342
654 3 332 333 334
655 4 332 333 335
656 3 334 333 335
657 3 331 332 333
658 3 331 332 344
659 4 333 332 344
660 5 112 113 114
661 5 112 113 115
662 5 112 113 116
663 2 114 113 115
664 2 114 113 116
665 2 115 113 116
666 1 1829 1828 1830
667 3 286 287 288
668 3 286 287 299
669 4 288 287 299
670 3 288 290 291
671 4 288 290 292
672 3 291 290 292
673 3 287 288 289
674 4 287 288 290
675 3 289 288 290
676 4 290 292 293
677 4 290 292 297
678 4 293 292 297
679 3 337 342 343
680 4 337 342 344
681 3 343 342 344
682 4 332 344 342
683 3 332 344 345
684 3 342 344 345
685 5 292 293 294
686 5 292 293 295
687 5 292 293 296
688 2 294 293 295
689 2 294 293 296
690 2 295 293 296
691 4 287 299 297
692 3 287 299 300
693 3 297 299 300
694 3 292 297 298
695 4 292 297 299
696 3 298 297 299
697 3 1447 1452 1453
698 4 1447 1452 1454
699 3 1453 1452 1454
700 1 2645 2644 2646
701 4 677 689 687
702 3 677 689 690
703 3 687 689 690
704 1 2648 2647 2649
705 1 1616 1615 1617
706 1 2816 2815 2817
707 1 2642 2641 2643
708 1 2177 2176 2178
709 1 2363 2362 2364
710 1 2489 2488 2490
711 1 2735 2734 2736
712 1 2381 2380 2382
713 1 2630 2629 2631
714 3 781 782 783
715 3 781 782 794
716 4 783 782 794
717 5 862 863 864
718 5 862 863 865
719 5 862 863 866
720 2 864 863 865
721 2 864 863 866
722 2 865 863 866
723 4 860 862 863
724 4 860 862 867
725 4 863 862 867
726 1 2045 2044 2046
727 1 3800 3799 3801
728 3 646 647 648
729 3 646 647 659
730 4 648 647 659
731 4 647 659 657
732 3 647 659 660
733 3 657 659 660
734 3 652 657 658
735 4 652 657 659
736 3 658 657 659
737 3 647 648 649
738 4 647 648 650
739 3 649 648 650
740 3 648 650 651
741 4 648 650 652
742 3 651 650 652
743 4 650 652 653
744 4 650 652 657
745 4 653 652 657
746 5 652 653 654
747 5 652 653 655
748 5 652 653 656
749 2 654 653 655
750 2 654 653 656
751 2 655 653 656
752 1 2654 2653 2655
753 3 858 860 861
754 4 858 860 862
755 3 861 860 862
756 1 3185 3184 3186
757 1 2321 2320 2322
758 3 737 738 739
759 4 737 738 740
760 3 739 738 740
761 3 736 737 738
762 3 736 737 749
763 4 738 737 749
764 4 740 742 743
765 4 740 742 747
766 4 743 742 747
767 3 738 740 741
768 4 738 740 742
769 3 741 740 742
770 3 742 747 748
771 4 742 747 749
772 3 748 747 749
773 4 737 749 747
774 3 737 749 750
775 3 747 749 750
776 1 2753 2752 2754
777 5 742 743 744
778 5 742 743 745
779 5 742 743 746
780 2 744 743 745
781 2 744 743 746
782 2 745 743 746
783 4 365 367 368
784 4 365 367 372
785 4 368 367 372
786 3 363 365 366
787 4 363 365 367
788 3 366 365 367
789 4 317 329 327
790 3 317 329 330
791 3 327 329 330
792 5 322 323 324
793 5 322 323 325
794 5 322 323 326
795 2 324 323 325
796 2 324 323 326
797 2 325 323 326
798 4 320 322 323
799 4 320 322 327
800 4 323 322 327
801 3 322 327 328
802 4 322 327 329
803 3 328 327 329
804 1 2438 2437 2439
805 1 2882 2881 2883
806 1 2408 2407 2409
807 5 367 368 369
808 5 367 368 370
809 5 367 368 371
810 2 369 368 370
811 2 369 368 371
812 2 370 368 371
813 1 2510 2509 2511
814 3 362 363 364
815 4 362 363 365
816 3 364 363 365
817 3 367 372 373
818 4 367 372 374
819 3 373 372 374
820 1 2156 2155 2157
821 1 1526 1525 1527
822 1 1655 1654 1656
823 1 1658 1657 1659
824 1 1775 1774 1776
825 1 1907 1906 1908
826 3 637 642 643
827 4 637 642 644
828 3 643 642 644
829 4 362 374 372
830 3 362 374 375
831 3 372 374 375
832 3 361 362 363
833 3 361 362 374
834 4 363 362 374
835 1 1640 1639 1641
836 5 637 638 639
837 5 637 638 640
838 5 637 638 641
839 2 639 638 640
840 2 639 638 641
841 2 640 638 641
842 4 635 637 638
843 4 635 637 642
844 4 638 637 642
845 4 632 644 642
846 3 632 644 645
847 3 642 644 645
848 1 2909 2908 2910
849 3 17 18 19
850 4 17 18 20
851 3 19 18 20
852 3 18 20 21
853 4 18 20 22
854 3 21 20 22
855 3 22 27 28
856 4 22 27 29
857 3 28 27 29
858 4 17 29 27
859 3 17 29 30
860 3 27 29 30
861 3 16 17 18
862 3 16 17 29
863 4 18 17 29
864 1 2027 2026 2028
865 1 1796 1795 1797
866 1 2900 2899 2901
867 4 20 22 23
868 4 20 22 27
869 4 23 22 27
870 1 1973 1972 1974
871 5 22 23 24
872 5 22 23 25
873 5 22 23 26
874 2 24 23 25
875 2 24 23 26
876 2 25 23 26
877 1 2300 2299 2301
878 1 2201 2200 2202
879 1 1955 1954 1956
880 1 2513 2512 2514
881 1 2021 2020 2022
882 4 392 404 402
883 3 392 404 405
884 3 402 404 405
885 4 1445 1447 1448
886 4 1445 1447 1452
887 4 1448 1447 1452
888 5 1222 1223 1224
889 5 1222 1223 1225
890 5 1222 1223 1226
891 2 1224 1223 1225
892 2 1224 1223 1226
893 2 1225 1223 1226
894 3 78 80 81
895 4 78 80 82
896 3 81 80 82
897 1 2741 2740 2742
898 4 80 82 83
899 4 80 82 87
900 4 83 82 87
901 3 82 87 88
902 4 82 87 89
903 3 88 87 89
904 5 82 83 84
905 5 82 83 85
906 5 82 83 86
907 2 84 83 85
908 2 84 83 86
909 2 85 83 86
910 3 631 632 633
911 3 631 632 644
912 4 633 632 644
913 1 1970 1969 1971
914 3 632 633 634
915 4 632 633 635
916 3 634 633 635
917 3 633 635 636
918 4 633 635 637
919 3 636 635 637
920 1 4370 4369 4371
921 3 661 662 663
922 3 661 662 674
923 4 663 662 674
924 4 662 674 672
925 3 662 674 675
926 3 672 674 675
927 1 1577 1576 1578
928 3 602 603 604
929 4 602 603 605
930 3 604 603 605
931 3 601 602 603
932 3 601 602 614
933 4 603 602 614
934 3 603 605 606
935 4 603 605 607
936 3 606 605 607
937 4 602 614 612
938 3 602 614 615
939 3 612 614 615
940 3 3 5 6
941 4 3 5 7
942 3 6 5 7
943 3 232 237 238
944 4 232 237 239
945 3 238 237 239
946 1 2348 2347 2349
947 5 607 608 609
948 5 607 608 610
949 5 607 608 611
950 2 609 608 610
951 2 609 608 611
952 2 610 608 611
953 5 277 278 279
954 5 277 278 280
955 5 277 278 281
956 2 279 278 280
957 2 279 278 281
958 2 280 278 281
959 4 605 607 608
960 4 605 607 612
961 4 608 607 612
962 3 607 612 613
963 4 607 612 614
964 3 613 612 614
965 1 2051 2050 2052
966 1 2417 2416 2418
967 1 2447 2446 2448
968 1 2330 2329 2331
969 1 2270 2269 2271
970 1 2897 2896 2898
971 1 2765 2764 2766
972 1 2435 2434 2436
973 1 2411 2410 2412
974 1 2675 2674 2676
975 1 1856 1855 1857
976 3 663 665 666
977 4 663 665 667
978 3 666 665 667
979 3 662 663 664
980 4 662 663 665
981 3 664 663 665
982 1 1928 1927 1929
983 1 4172 4171 4173
984 1 1583 1582 1584
985 1 2591 2590 2592
986 1 1625 1624 1626
987 1 2018 2017 2019
988 1 2498 2497 2499
989 1 1532 1531 1533
990 1 1877 1876 1878
991 1 1763 1762 1764
992 5 1447 1448 1449
993 5 1447 1448 1450
994 5 1447 1448 1451
995 2 1449 1448 1450
996 2 1449 1448 1451
997 2 1450 1448 1451
998 4 2 14 12
999 3 2 14 15
1000 3 12 14 15
1001 4 5 7 8
1002 4 5 7 12
1003 4 8 7 12
1004 3 7 12 13
1005 4 7 12 14
1006 3 13 12 14
1007 5 7 8 9
1008 5 7 8 10
1009 5 7 8 11
1010 2 9 8 10
1011 2 9 8 11
1012 2 10 8 11
1013 5 427 428 429
1014 5 427 428 430
1015 5 427 428 431
1016 2 429 428 430
1017 2 429 428 431
1018 2 430 428 431
1019 1 1913 1912 1914
1020 1 2102 2101 2103
1021 1 1682 1681 1683
1022 1 2303 2302 2304
1023 1 2486 2485 2487
1024 1 2249 2248 2250
1025 1 1547 1546 1548
1026 1 2198 2197 2199
1027 1 2264 2263 2265
1028 1 2414 2413 2415
1029 1 2699 2698 2700
1030 5 547 548 549
1031 5 547 548 550
1032 5 547 548 551
1033 2 549 548 550
1034 2 549 548 551
1035 2 550 548 551
1036 4 545 547 548
1037 4 545 547 552
1038 4 548 547 552
1039 1 1802 1801 1803
1040 4 1220 1222 1223
1041 4 1220 1222 1227
1042 4 1223 1222 1227
1043 3 451 452 453
1044 3 451 452 464
1045 4 453 452 464
1046 4 452 464 462
1047 3 452 464 465
1048 3 462 464 465
1049 1 2117 2116 2118
1050 5 457 458 459
1051 5 457 458 460
1052 5 457 458 461
1053 2 459 458 460
1054 2 459 458 461
1055 2 460 458 461
1056 1 2462 2461 2463
1057 3 452 453 454
1058 4 452 453 455
1059 3 454 453 455
1060 3 453 455 456
1061 4 453 455 457
1062 3 456 455 457
1063 4 455 457 458
1064 4 455 457 462
1065 4 458 457 462
1066 3 457 462 463
1067 4 457 462 464
1068 3 463 462 464
1069 1 1709 1708 1710
1070 1 2576 2575 2577
1071 1 1922 1921 1923
1072 1 2033 2032 2034
1073 1 2366 2365 2367
1074 5 787 788 789
1075 5 787 788 790
1076 5 787 788 791
1077 2 789 788 790
1078 2 789 788 791
1079 2 790 788 791
1080 4 785 787 788
1081 4 785 787 792
1082 4 788 787 792
1083 3 316 317 318
1084 3 316 317 329
1085 4 318 317 329
1086 4 782 794 792
1087 3 782 794 795
1088 3 792 794 795
1089 3 787 792 793
1090 4 787 792 794
1091 3 793 792 794
1092 3 427 432 433
1093 4 427 432 434
1094 3 433 432 434
1095 1 2126 2125 2127
1096 3 543 545 546
1097 4 543 545 547
1098 3 546 545 547
1099 3 542 543 544
1100 4 542 543 545
1101 3 544 543 545
1102 4 542 554 552
1103 3 542 554 555
1104 3 552 554 555
1105 3 541 542 543
1106 3 541 542 554
1107 4 543 542 554
1108 3 547 552 553
1109 4 547 552 554
1110 3 553 552 554
1111 3 317 318 319
1112 4 317 318 320
1113 3 319 318 320
1114 3 318 320 321
1115 4 318 320 322
1116 3 321 320 322
1117 4 422 434 432
1118 3 422 434 435
1119 3 432 434 435
1120 1 2543 2542 2544
1121 1 1940 1939 1941
1122 1 3059 3058 3060
1123 1 2849 2848 2850
1124 1 1607 1606 1608
1125 1 1943 1942 1944
1126 1 2756 2755 2757
1127 1 1574 1573 1575
1128 1 2306 2305 2307
1129 1 2183 2182 2184
1130 1 2684 2683 2685
1131 1 2015 2014 2016
1132 1 2315 2314 2316
1133 1 1733 1732 1734
1134 1 1643 1642 1644
1135 1 1505 1504 1506
1136 1 2471 2470 2472
1137 1 2921 2920 2922
1138 1 2255 2254 2256
1139 1 1736 1735 1737
1140 1 2375 2374 2376
1141 1 2798 2797 2799
1142 1 2444 2443 2445
1143 1 1637 1636 1638
1144 1 2378 2377 2379
1145 1 2495 2494 2496
1146 1 1991 1990 1992
1147 1 2732 2731 2733
1148 1 1592 1591 1593
1149 1 2612 2611 2613
1150 1 4343 4342 4344
1151 1 1985 1984 1986
1152 1 2600 2599 2601
1153 1 2399 2398 2400
1154 3 592 597 598
1155 4 592 597 599
1156 3 598 597 599
1157 1 4325 4324 4326
1158 3 588 590 591
1159 4 588 590 592
1160 3 591 590 592
1161 5 592 593 594
1162 5 592 593 595
1163 5 592 593 596
1164 2 594 593 595
1165 2 594 593 596
1166 2 595 593 596
1167 1 2588 2587 2589
1168 1 1508 1507 1509
1169 1 2624 2623 2625
1170 1 2279 2278 2280
1171 4 590 592 593
1172 4 590 592 597
1173 4 593 592 597
1174 1 1724 1723 1725
1175 1 3146 3145 3147
1176 1 3809 3808 3810
1177 1 1589 1588 1590
1178 1 1691 1690 1692
1179 1 1835 1834 1836
1180 1 2927 2926 2928
1181 1 2351 2350 2352
1182 1 2552 2551 2553
1183 1 2390 2389 2391
1184 1 2060 2059 2061
1185 1 2747 2746 2748
1186 1 2621 2620 2622
1187 1 2387 2386 2388
1188 1 2084 2083 2085
1189 1 2291 2290 2292
1190 1 2714 2713 2715
1191 1 1895 1894 1896
1192 1 4388 4387 4389
1193 1 2786 2785 2787
1194 1 3050 3049 3051
1195 1 1559 1558 1560
1196 1 2405 2404 2406
1197 1 2744 2743 2745
1198 1 4397 4396 4398
1199 1 2867 2866 2868
1200 1 2432 2431 2433
1201 1 2777 2776 2778
1202 5 442 443 444
1203 5 442 443 445
1204 5 442 443 446
1205 2 444 443 445
1206 2 444 443 446
1207 2 445 443 446
1208 1 1778 1777 1779
1209 1 4112 4111 4113
1210 3 438 440 441
1211 4 438 440 442
1212 3 441 440 442
1213 1 1817 1816 1818
1214 4 440 442 443
1215 4 440 442 447
1216 4 443 442 447
1217 3 667 672 673
1218 4 667 672 674
1219 3 673 672 674
1220 3 227 228 229
1221 4 227 228 230
1222 3 229 228 230
1223 3 226 227 228
1224 3 226 227 239
1225 4 228 227 239
1226 4 227 239 237
1227 3 227 239 240
1228 3 237 239 240
1229 3 228 230 231
1230 4 228 230 232
1231 3 231 230 232
1232 4 230 232 233
1233 4 230 232 237
1234 4 233 232 237
1235 1 2729 2728 2730
1236 1 1820 1819 1821
1237 1 2840 2839 2841
1238 1 2057 2056 2058
1239 1 2078 2077 2079
1240 1 2819 2818 2820
1241 1 1562 1561 1563
1242 1 1520 1519 1521
1243 1 2567 2566 2568
1244 1 2801 2800 2802
1245 1 2267 2266 2268
1246 1 2708 2707 2709
1247 3 1267 1272 1273
1248 4 1267 1272 1274
1249 3 1273 1272 1274
1250 5 667 668 669
1251 5 667 668 670
1252 5 667 668 671
1253 2 669 668 670
1254 2 669 668 671
1255 2 670 668 671
1256 1 2555 2554 2556
1257 4 437 449 447
1258 3 437 449 450
1259 3 447 449 450
1260 4 665 667 668
1261 4 665 667 672
1262 4 668 667 672
1263 3 442 447 448
1264 4 442 447 449
1265 3 448 447 449
1266 3 436 437 438
1267 3 436 437 449
1268 4 438 437 449
1269 3 437 438 439
1270 4 437 438 440
1271 3 439 438 440
1272 4 1067 1079 1077
1273 3 1067 1079 1080
1274 3 1077 1079 1080
1275 3 1066 1067 1068
1276 3 1066 1067 1079
1277 4 1068 1067 1079
1278 5 772 773 774
1279 5 772 773 775
1280 5 772 773 776
1281 2 774 773 775
1282 2 774 773 776
1283 2 775 773 776
1284 3 768 770 771
1285 4 768 770 772
1286 3 771 770 772
1287 3 1068 1070 1071
1288 4 1068 1070 1072
1289 3 1071 1070 1072
1290 3 1067 1068 1069
1291 4 1067 1068 1070
1292 3 1069 1068 1070
1293 3 767 768 769
1294 4 767 768 770
1295 3 769 768 770
1296 4 770 772 773
1297 4 770 772 777
1298 4 773 772 777
1299 3 772 777 778
1300 4 772 777 779
1301 3 778 777 779
1302 3 1072 1077 1078
1303 4 1072 1077 1079
1304 3 1078 1077 1079
1305 1 2324 2323 2325
1306 4 1070 1072 1073
1307 4 1070 1072 1077
1308 4 1073 1072 1077
1309 5 1072 1073 1074
1310 5 1072 1073 1075
1311 5 1072 1073 1076
1312 2 1074 1073 1075
1313 2 1074 1073 1076
1314 2 1075 1073 1076
1315 1 1898 1897 1899
1316 5 232 233 234
1317 5 232 233 235
1318 5 232 233 236
1319 2 234 233 235
1320 2 234 233 236
1321 2 235 233 236
1322 3 63 65 66
1323 4 63 65 67
1324 3 66 65 67
1325 3 62 63 64
1326 4 62 63 65
1327 3 64 63 65
1328 4 65 67 68
1329 4 65 67 72
1330 4 68 67 72
1331 5 67 68 69
1332 5 67 68 70
1333 5 67 68 71
1334 2 69 68 70
1335 2 69 68 71
1336 2 70 68 71
1337 3 67 72 73
1338 4 67 72 74
1339 3 73 72 74
1340 3 61 62 63
1341 3 61 62 74
1342 4 63 62 74
1343 4 62 74 72
1344 3 62 74 75
1345 3 72 74 75
1346 1 2186 2185 2187
1347 1 2870 2869 2871
1348 1 1982 1981 1983
1349 1 1826 1825 1827
1350 3 303 305 306
1351 4 303 305 307
1352 3 306 305 307
1353 1 2294 2293 2295
1354 3 302 303 304
1355 4 302 303 305
1356 3 304 303 305
1357 1 2537 2536 2538
1358 4 305 307 308
1359 4 305 307 312
1360 4 308 307 312
1361 1 2888 2887 2889
1362 1 1781 1780 1782
1363 1 2105 2104 2106
1364 1 2288 2287 2289
1365 1 3866 3865 3867
1366 4 425 427 428
1367 4 425 427 432
1368 4 428 427 432
1369 1 2246 2245 2247
1370 1 4418 4417 4419
1371 1 3719 3718 3720
1372 3 721 722 723
1373 3 721 722 734
1374 4 723 722 734
1375 1 3311 3310 3312
1376 3 727 732 733
1377 4 727 732 734
1378 3 733 732 734
1379 4 725 727 728
1380 4 725 727 732
1381 4 728 727 732
1382 3 723 725 726
1383 4 723 725 727
1384 3 726 725 727
1385 4 722 734 732
1386 3 722 734 735
1387 3 732 734 735
1388 5 727 728 729
1389 5 727 728 730
1390 5 727 728 731
1391 2 729 728 730
1392 2 729 728 731
1393 2 730 728 731
1394 3 722 723 724
1395 4 722 723 725
1396 3 724 723 725
1397 5 577 578 579
1398 5 577 578 580
1399 5 577 578 581
1400 2 579 578 580
1401 2 579 578 581
1402 2 580 578 581
1403 1 2951 2950 2952
1404 1 2252 2251 2253
1405 1 4337 4336 4338
1406 4 992 1004 1002
1407 3 992 1004 1005
1408 3 1002 1004 1005
1409 3 301 302 303
1410 3 301 302 314
1411 4 303 302 314
1412 3 307 312 313
1413 4 307 312 314
1414 3 313 312 314
1415 4 302 314 312
1416 3 302 314 315
1417 3 312 314 315
1418 3 423 425 426
1419 4 423 425 427
1420 3 426 425 427
1421 3 422 423 424
1422 4 422 423 425
1423 3 424 423 425
1424 1 1571 1570 1572
1425 3 421 422 423
1426 3 421 422 434
1427 4 423 422 434
1428 1 2705 2704 2706
1429 1 2522 2521 2523
1430 1 2660 2659 2661
1431 1 1694 1693 1695
1432 1 2831 2830 2832
1433 1 2501 2500 2502
1434 4 92 104 102
1435 3 92 104 105
1436 3 102 104 105
1437 3 97 102 103
1438 4 97 102 104
1439 3 103 102 104
1440 1 1652 1651 1653
1441 1 1685 1684 1686
1442 1 3929 3928 3930
1443 1 2396 2395 2397
1444 1 1697 1696 1698
1445 1 2549 2548 2550
1446 1 2063 2062 2064
1447 5 97 98 99
1448 5 97 98 100
1449 5 97 98 101
1450 2 99 98 100
1451 2 99 98 101
1452 2 100 98 101
1453 3 91 92 93
1454 3 91 92 104
1455 4 93 92 104
1456 4 95 97 98
1457 4 95 97 102
1458 4 98 97 102
1459 3 93 95 96
1460 4 93 95 97
1461 3 96 95 97
1462 3 92 93 94
1463 4 92 93 95
1464 3 94 93 95
1465 5 1387 1388 1389
1466 5 1387 1388 1390
1467 5 1387 1388 1391
1468 2 1389 1388 1390
1469 2 1389 1388 1391
1470 2 1390 1388 1391
1471 1 2099 2098 2100
1472 3 198 200 201
1473 4 198 200 202
1474 3 201 200 202
1475 4 695 697 698
1476 4 695 697 702
1477 4 698 697 702
1478 3 693 695 696
1479 4 693 695 697
1480 3 696 695 697
1481 3 692 693 694
1482 4 692 693 695
1483 3 694 693 695
1484 1 2120 2119 2121
1485 3 697 702 703
1486 4 697 702 704
1487 3 703 702 704
1488 1 2072 2071 2073
1489 1 1889 1888 1890
1490 5 697 698 699
1491 5 697 698 700
1492 5 697 698 701
1493 2 699 698 700
1494 2 699 698 701
1495 2 700 698 701
1496 1 2042 2041 2043
1497 1 2474 2473 2475
1498 1 1622 1621 1623
1499 1 1649 1648 1650
1500 1 2225 2224 2226
1501 3 616 617 618
1502 3 616 617 629
1503 4 618 617 629
1504 1 2276 2275 2277
1505 1 2558 2557 2559
1506 1 1667 1666 1668
1507 4 617 629 627
1508 3 617 629 630
1509 3 627 629 630
1510 1 1790 1789 1791
1511 3 122 123 124
1512 4 122 123 125
1513 3 124 123 125
1514 4 587 599 597
1515 3 587 599 600
1516 3 597 599 600
1517 5 247 248 249
1518 5 247 248 250
1519 5 247 248 251
1520 2 249 248 250
1521 2 249 248 251
1522 2 250 248 251
1523 3 123 125 126
1524 4 123 125 127
1525 3 126 125 127
1526 4 1265 1267 1268
1527 4 1265 1267 1272
1528 4 1268 1267 1272
1529 3 127 132 133
1530 4 127 132 134
1531 3 133 132 134
1532 3 376 377 378
1533 3 376 377 389
1534 4 378 377 389
1535 3 346 347 348
1536 3 346 347 359
1537 4 348 347 359
1538 3 347 348 349
1539 4 347 348 350
1540 3 349 348 350
1541 4 377 389 387
1542 3 377 389 390
1543 3 387 389 390
1544 4 347 359 357
1545 3 347 359 360
1546 3 357 359 360
1547 3 352 357 358
1548 4 352 357 359
1549 3 358 357 359
1550 3 348 350 351
1551 4 348 350 352
1552 3 351 350 352
1553 5 622 623 624
1554 5 622 623 625
1555 5 622 623 626
1556 2 624 623 625
1557 2 624 623 626
1558 2 625 623 626
1559 1 3458 3457 3459
1560 1 3926 3925 3927
1561 4 620 622 623
1562 4 620 622 627
1563 4 623 622 627
1564 3 618 620 621
1565 4 618 620 622
1566 3 621 620 622
1567 3 617 618 619
1568 4 617 618 620
1569 3 619 618 620
1570 4 125 127 128
1571 4 125 127 132
1572 4 128 127 132
1573 4 350 352 353
1574 4 350 352 357
1575 4 353 352 357
1576 3 997 1002 1003
1577 4 997 1002 1004
1578 3 1003 1002 1004
1579 1 2123 2122 2124
1580 3 622 627 628
1581 4 622 627 629
1582 3 628 627 629
1583 3 377 378 379
1584 4 377 378 380
1585 3 379 378 380
1586 4 692 704 702
1587 3 692 704 705
1588 3 702 704 705
1589 3 691 692 693
1590 3 691 692 704
1591 4 693 692 704
1592 1 2852 2851 2853
1593 1 2540 2539 2541
1594 1 2207 2206 2208
1595 1 1760 1759 1761
1596 1 2792 2791 2793
1597 1 2039 2038 2040
1598 1 1910 1909 1911
1599 1 2879 2878 2880
1600 1 1586 1585 1587
1601 1 1553 1552 1554
1602 1 1949 1948 1950
1603 1 1712 1711 1713
1604 1 4421 4420 4422
1605 3 397 402 403
1606 4 397 402 404
1607 3 403 402 404
1608 1 2129 2128 2130
1609 1 2603 2602 2604
1610 5 352 353 354
1611 5 352 353 355
1612 5 352 353 356
1613 2 354 353 355
1614 2 354 353 356
1615 2 355 353 356
1616 1 2000 1999 2001
1617 1 2960 2959 2961
1618 4 752 764 762
1619 3 752 764 765
1620 3 762 764 765
1621 3 751 752 753
1622 3 751 752 764
1623 4 753 752 764
1624 1 3173 3172 3174
1625 3 752 753 754
1626 4 752 753 755
1627 3 754 753 755
1628 3 757 762 763
1629 4 757 762 764
1630 3 763 762 764
1631 3 753 755 756
1632 4 753 755 757
1633 3 756 755 757
1634 5 757 758 759
1635 5 757 758 760
1636 5 757 758 761
1637 2 759 758 760
1638 2 759 758 761
1639 2 760 758 761
1640 4 755 757 758
1641 4 755 757 762
1642 4 758 757 762
1643 3 1441 1442 1443
1644 3 1441 1442 1454
1645 4 1443 1442 1454
1646 1 2822 2821 2823
1647 1 1847 1846 1848
1648 1 1727 1726 1728
1649 1 2003 2002 2004
1650 1 2150 2149 2151
1651 3 797 798 799
1652 4 797 798 800
1653 3 799 798 800
1654 4 797 809 807
1655 3 797 809 810
1656 3 807 809 810
1657 3 796 797 798
1658 3 796 797 809
1659 4 798 797 809
1660 1 2702 2701 2703
1661 3 802 807 808
1662 4 802 807 809
1663 3 808 807 809
1664 1 2153 2152 2154
1665 3 798 800 801
1666 4 798 800 802
1667 3 801 800 802
1668 5 802 803 804
1669 5 802 803 805
1670 5 802 803 806
1671 2 804 803 805
1672 2 804 803 806
1673 2 805 803 806
1674 1 1976 1975 1977
1675 4 800 802 803
1676 4 800 802 807
1677 4 803 802 807
1678 1 2243 2242 2244
1679 1 2726 2725 2727
1680 1 2213 2212 2214
1681 1 2441 2440 2442
1682 1 1808 1807 1809
1683 1 1880 1879 1881
1684 1 4247 4246 4248
1685 3 766 767 768
1686 3 766 767 779
1687 4 768 767 779
1688 4 767 779 777
1689 3 767 779 780
1690 3 777 779 780
1691 1 2354 2353 2355
1692 1 2825 2824 2826
1693 1 2453 2452 2454
1694 1 2597 2596 2598
1695 1 2783 2782 2784
1696 1 1676 1675 1677
1697 1 4163 4162 4164
1698 1 2210 2209 2211
1699 1 2837 2836 2838
1700 1 3041 3040 3042
1701 1 3380 3379 3381
1702 1 2468 2467 2469
1703 5 307 308 309
1704 5 307 308 310
1705 5 307 308 311
1706 2 309 308 310
1707 2 309 308 311
1708 2 310 308 311
1709 1 2087 2086 2088
1710 1 2231 2230 2232
1711 1 2483 2482 2484
1712 1 1862 1861 1863
1713 1 1514 1513 1515
1714 1 1814 1813 1815
1715 1 2546 2545 2547
1716 1 2570 2569 2571
1717 1 2633 2632 2634
1718 1 1994 1993 1995
1719 1 1631 1630 1632
1720 1 2282 2281 2283
1721 1 2075 2074 2076
1722 1 2564 2563 2565
1723 1 1904 1903 1905
1724 1 2696 2695 2697
1725 1 3212 3211 3213
1726 1 1865 1864 1866
1727 1 3314 3313 3315
1728 1 3425 3424 3426
1729 1 3221 3220 3222
1730 1 2009 2008 2010
1731 3 243 245 246
1732 4 243 245 247
1733 3 246 245 247
1734 1 1754 1753 1755
1735 3 241 242 243
1736 3 241 242 254
1737 4 243 242 254
1738 3 242 243 244
1739 4 242 243 245
1740 3 244 243 245
1741 1 2585 2584 2586
1742 1 2450 2449 2451
1743 1 2903 2902 2904
1744 1 2672 2671 2673
1745 1 2048 2047 2049
1746 1 1805 1804 1806
1747 1 2855 2854 2856
1748 1 2096 2095 2097
1749 1 1511 1510 1512
1750 1 2192 2191 2193
1751 1 2678 2677 2679
1752 1 1853 1852 1854
1753 1 1565 1564 1566
1754 1 2627 2626 2628
1755 1 2891 2890 2892
1756 4 560 562 563
1757 4 560 562 567
1758 4 563 562 567
1759 1 1721 1720 1722
1760 3 556 557 558
1761 3 556 557 569
1762 4 558 557 569
1763 4 557 569 567
1764 3 557 569 570
1765 3 567 569 570
1766 1 2954 2953 2955
1767 1 2360 2359 2361
1768 5 562 563 564
1769 5 562 563 565
1770 5 562 563 566
1771 2 564 563 565
1772 2 564 563 566
1773 2 565 563 566
1774 3 1263 1265 1266
1775 4 1263 1265 1267
1776 3 1266 1265 1267
1777 3 1387 1392 1393
1778 4 1387 1392 1394
1779 3 1393 1392 1394
1780 1 2372 2371 2373
1781 1 2261 2260 2262
1782 3 558 560 561
1783 4 558 560 562
1784 3 561 560 562
1785 3 562 567 568
1786 4 562 567 569
1787 3 568 567 569
1788 3 1383 1385 1386
1789 4 1383 1385 1387
1790 3 1386 1385 1387
1791 4 1385 1387 1388
1792 4 1385 1387 1392
1793 4 1388 1387 1392
1794 1 2918 2917 2919
1795 1 4100 4099 4101
1796 1 2333 2332 2334
1797 1 4253 4252 4254
1798 1 3503 3502 3504
1799 3 587 588 589
1800 4 587 588 590
1801 3 589 588 590
1802 1 3089 3088 3090
1803 1 3239 3238 3240
1804 1 3362 3361 3363
1805 1 3713 3712 3714
1806 1 3944 3943 3945
1807 1 4304 4303 4305
1808 1 2525 2524 2526
1809 1 4340 4339 4341
1810 1 3266 3265 3267
1811 1 3791 3790 3792
1812 3 1417 1422 1423
1813 4 1417 1422 1424
1814 3 1423 1422 1424
1815 3 1413 1415 1416
1816 4 1413 1415 1417
1817 3 1416 1415 1417
1818 4 1415 1417 1418
1819 4 1415 1417 1422
1820 4 1418 1417 1422
1821 5 1417 1418 1419
1822 5 1417 1418 1420
1823 5 1417 1418 1421
1824 2 1419 1418 1420
1825 2 1419 1418 1421
1826 2 1420 1418 1421
1827 1 2582 2581 2583
1828 1 3320 3319 3321
1829 1 4109 4108 4110
1830 1 1751 1750 1752
1831 1 2999 2998 3000
1832 1 4118 4117 4119
1833 1 3941 3940 3942
1834 1 3767 3766 3768
1835 1 3869 3868 3870
1836 1 3182 3181 3183
1837 1 4394 4393 4395
1838 1 3770 3769 3771
1839 1 3746 3745 3747
1840 1 4307 4306 4308
1841 1 3824 3823 3825
1842 1 3830 3829 3831
1843 1 3083 3082 3084
1844 4 1157 1169 1167
1845 3 1157 1169 1170
1846 3 1167 1169 1170
1847 3 1156 1157 1158
1848 3 1156 1157 1169
1849 4 1158 1157 1169
1850 3 1158 1160 1161
1851 4 1158 1160 1162
1852 3 1161 1160 1162
1853 3 1162 1167 1168
1854 4 1162 1167 1169
1855 3 1168 1167 1169
1856 5 1162 1163 1164
1857 5 1162 1163 1165
1858 5 1162 1163 1166
1859 2 1164 1163 1165
1860 2 1164 1163 1166
1861 2 1165 1163 1166
1862 4 1160 1162 1163
1863 4 1160 1162 1167
1864 4 1163 1162 1167
1865 3 1157 1158 1159
1866 4 1157 1158 1160
1867 3 1159 1158 1160
1868 4 1412 1424 1422
1869 3 1412 1424 1425
1870 3 1422 1424 1425
1871 3 1411 1412 1413
1872 3 1411 1412 1424
1873 4 1413 1412 1424
1874 3 1412 1413 1414
1875 4 1412 1413 1415
1876 3 1414 1413 1415
1877 1 3677 3676 3678
1878 1 4475 4474 4476
1879 1 3245 3244 3246
1880 4 1262 1274 1272
1881 3 1262 1274 1275
1882 3 1272 1274 1275
1883 1 3317 3316 3318
1884 1 3665 3664 3666
1885 3 1261 1262 1263
1886 3 1261 1262 1274
1887 4 1263 1262 1274
1888 3 1262 1263 1264
1889 4 1262 1263 1265
1890 3 1264 1263 1265
1891 3 841 842 843
1892 3 841 842 854
1893 4 843 842 854
1894 1 3194 3193 3195
1895 1 3470 3469 3471
1896 1 3956 3955 3957
1897 1 4481 4480 4482
1898 1 3128 3127 3129
1899 1 3917 3916 3918
1900 1 3062 3061 3063
1901 1 3218 3217 3219
1902 1 3704 3703 3705
1903 1 4499 4498 4500
1904 1 3545 3544 3546
1905 1 2972 2971 2973
1906 1 3755 3754 3756
1907 1 3152 3151 3153
1908 1 4373 4372 4374
1909 1 3569 3568 3570
1910 1 1799 1798 1800
1911 1 4472 4471 4473
1912 1 2357 2356 2358
1913 1 3011 3010 3012
1914 1 4226 4225 4227
1915 1 2981 2980 2982
1916 1 3053 3052 3054
1917 1 4208 4207 4209
1918 1 3698 3697 3699
1919 3 963 965 966
1920 4 963 965 967
1921 3 966 965 967
1922 1 3323 3322 3324
1923 1 1523 1522 1524
1924 1 3995 3994 3996
1925 1 3170 3169 3171
1926 1 4484 4483 4485
1927 1 3290 3289 3291
1928 1 4367 4366 4368
1929 1 3935 3934 3936
1930 1 2720 2719 2721
1931 1 4463 4462 4464
1932 1 3494 3493 3495
1933 1 3797 3796 3798
1934 1 4139 4138 4140
1935 1 2234 2233 2235
1936 1 3962 3961 3963
1937 1 2966 2965 2967
1938 1 2912 2911 2913
1939 1 4166 4165 4167
1940 3 967 972 973
1941 4 967 972 974
1942 3 973 972 974
1943 3 572 573 574
1944 4 572 573 575
1945 3 574 573 575
1946 4 575 577 578
1947 4 575 577 582
1948 4 578 577 582
1949 3 573 575 576
1950 4 573 575 577
1951 3 576 575 577
1952 1 3740 3739 3741
1953 3 571 572 573
1954 3 571 572 584
1955 4 573 572 584
1956 1 3443 3442 3444
1957 1 4328 4327 4329
1958 1 4490 4489 4491
1959 1 3908 3907 3909
1960 1 1535 1534 1536
1961 1 3812 3811 3813
1962 1 4019 4018 4020
1963 1 4115 4114 4116
1964 1 3251 3250 3252
1965 1 3815 3814 3816
1966 1 3896 3895 3897
1967 1 3122 3121 3123
1968 1 4409 4408 4410
1969 1 3386 3385 3387
1970 1 3920 3919 3921
1971 1 4232 4231 4233
1972 1 4493 4492 4494
1973 1 4313 4312 4314
1974 1 3044 3043 3045
1975 1 3500 3499 3501
1976 1 1700 1699 1701
1977 1 3413 3412 3414
1978 1 3452 3451 3453
1979 1 2843 2842 2844
1980 1 2933 2932 2934
1981 1 3911 3910 3912
1982 3 513 515 516
1983 4 513 515 517
1984 3 516 515 517
1985 1 2873 2872 2874
1986 4 857 869 867
1987 3 857 869 870
1988 3 867 869 870
1989 1 3131 3130 3132
1990 1 3773 3772 3774
1991 1 3539 3538 3540
1992 1 3845 3844 3846
1993 1 3620 3619 3621
1994 5 502 503 504
1995 5 502 503 505
1996 5 502 503 506
1997 2 504 503 505
1998 2 504 503 506
1999 2 505 503 506
2000 1 4334 4333 4335
2001 1 3953 3952 3954
2002 1 2318 2317 2319
2003 1 1901 1900 1902
2004 1 4352 4351 4353
2005 1 3140 3139 3141
2006 1 4277 4276 4278
2007 1 4205 4204 4206
2008 1 3287 3286 3288
2009 1 3857 3856 3858
2010 1 3638 3637 3639
2011 1 3329 3328 3330
2012 1 3113 3112 3114
2013 1 3743 3742 3744
2014 1 4043 4042 4044
2015 1 3512 3511 3513
2016 1 3137 3136 3138
2017 4 842 854 852
2018 3 842 854 855
2019 3 852 854 855
2020 1 3650 3649 3651
2021 1 3395 3394 3396
2022 1 4022 4021 4023
2023 1 3548 3547 3549
2024 1 3377 3376 3378
2025 1 2636 2635 2637
2026 1 3659 3658 3660
2027 1 4412 4411 4413
2028 1 4250 4249 4251
2029 4 1205 1207 1208
2030 4 1205 1207 1212
2031 4 1208 1207 1212
2032 3 847 852 853
2033 4 847 852 854
2034 3 853 852 854
2035 1 3002 3001 3003
2036 1 3032 3031 3033
2037 3 1203 1205 1206
2038 4 1203 1205 1207
2039 3 1206 1205 1207
2040 3 1382 1383 1384
2041 4 1382 1383 1385
2042 3 1384 1383 1385
2043 1 1868 1867 1869
2044 1 3875 3874 3876
2045 1 3518 3517 3519
2046 1 3581 3580 3582
2047 1 3257 3256 3258
2048 1 3635 3634 3636
2049 1 2936 2935 2937
2050 1 4439 4438 4440
2051 1 3284 3283 3285
2052 1 3188 3187 3189
2053 3 917 918 919
2054 4 917 918 920
2055 3 919 918 920
2056 3 918 920 921
2057 4 918 920 922
2058 3 921 920 922
2059 5 922 923 924
2060 5 922 923 925
2061 5 922 923 926
2062 2 924 923 925
2063 2 924 923 926
2064 2 925 923 926
2065 4 920 922 923
2066 4 920 922 927
2067 4 923 922 927
2068 1 2924 2923 2925
2069 1 3506 3505 3507
2070 1 2957 2956 2958
2071 1 3155 3154 3156
2072 1 3623 3622 3624
2073 1 2504 2503 2505
2074 1 3176 3175 3177
2075 1 3281 3280 3282
2076 1 3056 3055 3057
2077 1 3902 3901 3903
2078 1 4202 4201 4203
2079 4 1382 1394 1392
2080 3 1382 1394 1395
2081 3 1392 1394 1395
2082 3 857 858 859
2083 4 857 858 860
2084 3 859 858 860
2085 5 397 398 399
2086 5 397 398 400
2087 5 397 398 401
2088 2 399 398 400
2089 2 399 398 401
2090 2 400 398 401
2091 1 3047 3046 3048
2092 1 3803 3802 3804
2093 1 3590 3589 3591
2094 5 1012 1013 1014
2095 5 1012 1013 1015
2096 5 1012 1013 1016
2097 2 1014 1013 1015
2098 2 1014 1013 1016
2099 2 1015 1013 1016
2100 4 1010 1012 1013
2101 4 1010 1012 1017
2102 4 1013 1012 1017
2103 3 1012 1017 1018
2104 4 1012 1017 1019
2105 3 1018 1017 1019
2106 1 3689 3688 3690
2107 1 3932 3931 3933
2108 1 4136 4135 4137
2109 1 3725 3724 3726
2110 1 4271 4270 4272
2111 1 4331 4330 4332
2112 4 1007 1019 1017
2113 3 1007 1019 1020
2114 3 1017 1019 1020
2115 1 4433 4432 4434
2116 3 1006 1007 1008
2117 3 1006 1007 1019
2118 4 1008 1007 1019
2119 3 916 917 918
2120 3 916 917 929
2121 4 918 917 929
2122 3 1007 1008 1009
2123 4 1007 1008 1010
2124 3 1009 1008 1010
2125 3 1008 1010 1011
2126 4 1008 1010 1012
2127 3 1011 1010 1012
2128 3 922 927 928
2129 4 922 927 929
2130 3 928 927 929
2131 4 917 929 927
2132 3 917 929 930
2133 3 927 929 930
2134 1 4220 4219 4221
2135 1 4382 4381 4383
2136 1 4256 4255 4257
2137 1 4148 4147 4149
2138 1 4454 4453 4455
2139 4 1337 1349 1347
2140 3 1337 1349 1350
2141 3 1347 1349 1350
2142 3 1342 1347 1348
2143 4 1342 1347 1349
2144 3 1348 1347 1349
2145 4 1340 1342 1343
2146 4 1340 1342 1347
2147 4 1343 1342 1347
2148 1 4241 4240 4242
2149 5 1342 1343 1344
2150 5 1342 1343 1345
2151 5 1342 1343 1346
2152 2 1344 1343 1345
2153 2 1344 1343 1346
2154 2 1345 1343 1346
2155 1 4316 4315 4317
2156 1 1748 1747 1749
2157 1 3449 3448 3450
2158 1 2639 2638 2640
2159 1 3737 3736 3738
2160 3 1336 1337 1338
2161 3 1336 1337 1349
2162 4 1338 1337 1349
2163 3 1037 1038 1039
2164 4 1037 1038 1040
2165 3 1039 1038 1040
2166 3 1036 1037 1038
2167 3 1036 1037 1049
2168 4 1038 1037 1049
2169 1 3197 3196 3198
2170 1 1841 1840 1842
2171 1 4364 4363 4365
2172 1 3764 3763 3765
2173 1 1601 1600 1602
2174 1 3563 3562 3564
2175 1 4427 4426 4428
2176 1 3542 3541 3543
2177 5 892 893 894
2178 5 892 893 895
2179 5 892 893 896
2180 2 894 893 895
2181 2 894 893 896
2182 2 895 893 896
2183 4 890 892 893
2184 4 890 892 897
2185 4 893 892 897
2186 1 3260 3259 3261
2187 1 3344 3343 3345
2188 5 877 878 879
2189 5 877 878 880
2190 5 877 878 881
2191 2 879 878 880
2192 2 879 878 881
2193 2 880 878 881
2194 3 888 890 891
2195 4 888 890 892
2196 3 891 890 892
2197 4 257 269 267
2198 3 257 269 270
2199 3 267 269 270
2200 3 1338 1340 1341
2201 4 1338 1340 1342
2202 3 1341 1340 1342
2203 3 1337 1338 1339
2204 4 1337 1338 1340
2205 3 1339 1338 1340
2206 4 962 974 972
2207 3 962 974 975
2208 3 972 974 975
2209 3 1038 1040 1041
2210 4 1038 1040 1042
2211 3 1041 1040 1042
2212 4 1040 1042 1043
2213 4 1040 1042 1047
2214 4 1043 1042 1047
2215 5 1042 1043 1044
2216 5 1042 1043 1045
2217 5 1042 1043 1046
2218 2 1044 1043 1045
2219 2 1044 1043 1046
2220 2 1045 1043 1046
2221 1 3884 3883 3885
2222 4 260 262 263
2223 4 260 262 267
2224 4 263 262 267
2225 3 256 257 258
2226 3 256 257 269
2227 4 258 257 269
2228 3 257 258 259
2229 4 257 258 260
2230 3 259 258 260
2231 3 258 260 261
2232 4 258 260 262
2233 3 261 260 262
2234 1 4055 4054 4056
2235 3 498 500 501
2236 4 498 500 502
2237 3 501 500 502
2238 1 4094 4093 4095
2239 3 497 498 499
2240 4 497 498 500
2241 3 499 498 500
2242 3 496 497 498
2243 3 496 497 509
2244 4 498 497 509
2245 4 500 502 503
2246 4 500 502 507
2247 4 503 502 507
2248 4 497 509 507
2249 3 497 509 510
2250 3 507 509 510
2251 1 3233 3232 3234
2252 4 845 847 848
2253 4 845 847 852
2254 4 848 847 852
2255 3 892 897 898
2256 4 892 897 899
2257 3 898 897 899
2258 4 1037 1049 1047
2259 3 1037 1049 1050
2260 3 1047 1049 1050
2261 4 887 899 897
2262 3 887 899 900
2263 3 897 899 900
2264 3 886 887 888
2265 3 886 887 899
2266 4 888 887 899
2267 3 887 888 889
2268 4 887 888 890
2269 3 889 888 890
2270 1 3242 3241 3243
2271 3 1042 1047 1048
2272 4 1042 1047 1049
2273 3 1048 1047 1049
2274 1 3776 3775 3777
2275 1 3533 3532 3534
2276 1 4286 4285 4287
2277 1 3110 3109 3111
2278 3 1297 1302 1303
2279 4 1297 1302 1304
2280 3 1303 1302 1304
2281 4 1295 1297 1298
2282 4 1295 1297 1302
2283 4 1298 1297 1302
2284 5 1297 1298 1299
2285 5 1297 1298 1300
2286 5 1297 1298 1301
2287 2 1299 1298 1300
2288 2 1299 1298 1301
2289 2 1300 1298 1301
2290 1 3371 3370 3372
2291 4 1292 1304 1302
2292 3 1292 1304 1305
2293 3 1302 1304 1305
2294 5 1432 1433 1434
2295 5 1432 1433 1435
2296 5 1432 1433 1436
2297 2 1434 1433 1435
2298 2 1434 1433 1436
2299 2 1435 1433 1436
2300 3 1426 1427 1428
2301 3 1426 1427 1439
2302 4 1428 1427 1439
2303 4 1427 1439 1437
2304 3 1427 1439 1440
2305 3 1437 1439 1440
2306 3 1432 1437 1438
2307 4 1432 1437 1439
2308 3 1438 1437 1439
2309 4 1430 1432 1433
2310 4 1430 1432 1437
2311 4 1433 1432 1437
2312 5 1477 1478 1479
2313 5 1477 1478 1480
2314 5 1477 1478 1481
2315 2 1479 1478 1480
2316 2 1479 1478 1481
2317 2 1480 1478 1481
2318 4 1475 1477 1478
2319 4 1475 1477 1482
2320 4 1478 1477 1482
2321 3 1427 1428 1429
2322 4 1427 1428 1430
2323 3 1429 1428 1430
2324 3 1428 1430 1431
2325 4 1428 1430 1432
2326 3 1431 1430 1432
2327 4 1472 1484 1482
2328 3 1472 1484 1485
2329 3 1482 1484 1485
2330 3 1477 1482 1483
2331 4 1477 1482 1484
2332 3 1483 1482 1484
2333 1 3692 3691 3693
2334 1 3401 3400 3402
2335 1 4460 4459 4461
2336 5 1207 1208 1209
2337 5 1207 1208 1210
2338 5 1207 1208 1211
2339 2 1209 1208 1210
2340 2 1209 1208 1211
2341 2 1210 1208 1211
2342 3 856 857 858
2343 3 856 857 869
2344 4 858 857 869
2345 1 4217 4216 4218
2346 3 502 507 508
2347 4 502 507 509
2348 3 508 507 509
2349 1 4262 4261 4263
2350 1 2465 2464 2466
2351 1 4355 4354 4356
2352 1 3461 3460 3462
2353 3 1442 1443 1444
2354 4 1442 1443 1445
2355 3 1444 1443 1445
2356 3 1443 1445 1446
2357 4 1443 1445 1447
2358 3 1446 1445 1447
2359 1 3959 3958 3960
2360 1 3554 3553 3555
2361 1 4349 4348 4350
2362 1 4127 4126 4128
2363 1 4091 4090 4092
2364 1 3998 3997 3999
2365 1 3296 3295 3297
2366 1 3350 3349 3351
2367 1 4067 4066 4068
2368 1 3125 3124 3126
2369 1 4400 4399 4401
2370 1 3887 3886 3888
2371 1 3428 3427 3429
2372 1 2987 2986 2988
2373 1 4385 4384 4386
2374 1 3965 3964 3966
2375 3 1293 1295 1296
2376 4 1293 1295 1297
2377 3 1296 1295 1297
2378 3 1473 1475 1476
2379 4 1473 1475 1477
2380 3 1476 1475 1477
2381 3 1471 1472 1473
2382 3 1471 1472 1484
2383 4 1473 1472 1484
2384 3 1472 1473 1474
2385 4 1472 1473 1475
2386 3 1474 1473 1475
2387 1 4037 4036 4038
2388 1 3263 3262 3264
2389 1 3833 3832 3834
2390 3 1202 1203 1204
2391 4 1202 1203 1205
2392 3 1204 1203 1205
2393 3 1201 1202 1203
2394 3 1201 1202 1214
2395 4 1203 1202 1214
2396 4 1202 1214 1212
2397 3 1202 1214 1215
2398 3 1212 1214 1215
2399 3 1207 1212 1213
2400 4 1207 1212 1214
2401 3 1213 1212 1214
2402 1 4238 4237 4239
2403 1 4415 4414 4416
2404 3 217 222 223
2405 4 217 222 224
2406 3 223 222 224
2407 3 1051 1052 1053
2408 3 1051 1052 1064
2409 4 1053 1052 1064
2410 3 1052 1053 1054
2411 4 1052 1053 1055
2412 3 1054 1053 1055
2413 1 3203 3202 3204
2414 5 217 218 219
2415 5 217 218 220
2416 5 217 218 221
2417 2 219 218 220
2418 2 219 218 221
2419 2 220 218 221
2420 3 1057 1062 1063
2421 4 1057 1062 1064
2422 3 1063 1062 1064
2423 4 1052 1064 1062
2424 3 1052 1064 1065
2425 3 1062 1064 1065
2426 4 1055 1057 1058
2427 4 1055 1057 1062
2428 4 1058 1057 1062
2429 4 215 217 218
2430 4 215 217 222
2431 4 218 217 222
2432 3 862 867 868
2433 4 862 867 869
2434 3 868 867 869
2435 5 127 128 129
2436 5 127 128 130
2437 5 127 128 131
2438 2 129 128 130
2439 2 129 128 131
2440 2 130 128 131
2441 1 3446 3445 3447
2442 3 1053 1055 1056
2443 4 1053 1055 1057
2444 3 1056 1055 1057
2445 5 1057 1058 1059
2446 5 1057 1058 1060
2447 5 1057 1058 1061
2448 2 1059 1058 1060
2449 2 1059 1058 1061
2450 2 1060 1058 1061
2451 1 3269 3268 3270
2452 1 3119 3118 3120
2453 1 4157 4156 4158
2454 1 3662 3661 3663
2455 4 1130 1132 1133
2456 4 1130 1132 1137
2457 4 1133 1132 1137
2458 3 1111 1112 1113
2459 3 1111 1112 1124
2460 4 1113 1112 1124
2461 3 1132 1137 1138
2462 4 1132 1137 1139
2463 3 1138 1137 1139
2464 4 1127 1139 1137
2465 3 1127 1139 1140
2466 3 1137 1139 1140
2467 4 1112 1124 1122
2468 3 1112 1124 1125
2469 3 1122 1124 1125
2470 3 1126 1127 1128
2471 3 1126 1127 1139
2472 4 1128 1127 1139
2473 3 1127 1128 1129
2474 4 1127 1128 1130
2475 3 1129 1128 1130
2476 1 4154 4153 4155
2477 3 1112 1113 1114
2478 4 1112 1113 1115
2479 3 1114 1113 1115
2480 1 3029 3028 3030
2481 4 1280 1282 1283
2482 4 1280 1282 1287
2483 4 1283 1282 1287
2484 3 1277 1278 1279
2485 4 1277 1278 1280
2486 3 1279 1278 1280
2487 3 1278 1280 1281
2488 4 1278 1280 1282
2489 3 1281 1280 1282
2490 5 1282 1283 1284
2491 5 1282 1283 1285
2492 5 1282 1283 1286
2493 2 1284 1283 1285
2494 2 1284 1283 1286
2495 2 1285 1283 1286
2496 3 1128 1130 1131
2497 4 1128 1130 1132
2498 3 1131 1130 1132
2499 5 1132 1133 1134
2500 5 1132 1133 1135
2501 5 1132 1133 1136
2502 2 1134 1133 1135
2503 2 1134 1133 1136
2504 2 1135 1133 1136
2505 3 1276 1277 1278
2506 3 1276 1277 1289
2507 4 1278 1277 1289
2508 4 1277 1289 1287
2509 3 1277 1289 1290
2510 3 1287 1289 1290
2511 3 1282 1287 1288
2512 4 1282 1287 1289
2513 3 1288 1287 1289
2514 4 212 224 222
2515 3 212 224 225
2516 3 222 224 225
2517 1 2948 2947 2949
2518 1 3842 3841 3843
2519 3 213 215 216
2520 4 213 215 217
2521 3 216 215 217
2522 1 2114 2113 2115
2523 1 3782 3781 3783
2524 1 4466 4465 4467
2525 3 211 212 213
2526 3 211 212 224
2527 4 213 212 224
2528 1 4103 4102 4104
2529 4 1217 1229 1227
2530 3 1217 1229 1230
2531 3 1227 1229 1230
2532 3 212 213 214
2533 4 212 213 215
2534 3 214 213 215
2535 1 3491 3490 3492
2536 1 2717 2716 2718
2537 1 4007 4006 4008
2538 1 3134 3133 3135
2539 1 4193 4192 4194
2540 3 1216 1217 1218
2541 3 1216 1217 1229
2542 4 1218 1217 1229
2543 1 2492 2491 2493
2544 1 3614 3613 3615
2545 3 1117 1122 1123
2546 4 1117 1122 1124
2547 3 1123 1122 1124
2548 1 4295 4294 4296
2549 1 3434 3433 3435
2550 4 1115 1117 1118
2551 4 1115 1117 1122
2552 4 1118 1117 1122
2553 1 3992 3991 3993
2554 1 4280 4279 4281
2555 5 1117 1118 1119
2556 5 1117 1118 1120
2557 5 1117 1118 1121
2558 2 1119 1118 1120
2559 2 1119 1118 1121
2560 2 1120 1118 1121
2561 1 2963 2962 2964
2562 1 3485 3484 3486
2563 1 3017 3016 3018
2564 1 3728 3727 3729
2565 1 4049 4048 4050
2566 1 3839 3838 3840
2567 1 3341 3340 3342
2568 1 4478 4477 4479
2569 1 3308 3307 3309
2570 1 3416 3415 3417
2571 3 1113 1115 1116
2572 4 1113 1115 1117
2573 3 1116 1115 1117
2574 1 4001 4000 4002
2575 1 2978 2977 2979
2576 1 3437 3436 3438
2577 1 4187 4186 4188
2578 3 1366 1367 1368
2579 3 1366 1367 1379
2580 4 1368 1367 1379
2581 1 3191 3190 3192
2582 1 3848 3847 3849
2583 1 2993 2992 2994
2584 3 826 827 828
2585 3 826 827 839
2586 4 828 827 839
2587 1 4424 4423 4425
2588 1 3116 3115 3117
2589 3 873 875 876
2590 4 873 875 877
2591 3 876 875 877
2592 4 875 877 878
2593 4 875 877 882
2594 4 878 877 882
2595 1 4004 4003 4005
2596 1 1757 1756 1758
2597 3 877 882 883
2598 4 877 882 884
2599 3 883 882 884
2600 1 3161 3160 3162
2601 1 3353 3352 3354
2602 1 3851 3850 3852
2603 1 3365 3364 3366
2604 1 3473 3472 3474
2605 1 4106 4105 4107
2606 3 1247 1248 1249
2607 4 1247 1248 1250
2608 3 1249 1248 1250
2609 3 1248 1250 1251
2610 4 1248 1250 1252
2611 3 1251 1250 1252
2612 1 3914 3913 3915
2613 5 1252 1253 1254
2614 5 1252 1253 1255
2615 5 1252 1253 1256
2616 2 1254 1253 1255
2617 2 1254 1253 1256
2618 2 1255 1253 1256
2619 1 3143 3142 3144
2620 1 4073 4072 4074
2621 4 872 884 882
2622 3 872 884 885
2623 3 882 884 885
2624 4 1250 1252 1253
2625 4 1250 1252 1257
2626 4 1253 1252 1257
2627 3 871 872 873
2628 3 871 872 884
2629 4 873 872 884
2630 5 952 953 954
2631 5 952 953 955
2632 5 952 953 956
2633 2 954 953 955
2634 2 954 953 956
2635 2 955 953 956
2636 1 4058 4057 4059
2637 3 1381 1382 1383
2638 3 1381 1382 1394
2639 4 1383 1382 1394
2640 1 3968 3967 3969
2641 1 4274 4273 4275
2642 1 1661 1660 1662
2643 1 3605 3604 3606
2644 5 157 158 159
2645 5 157 158 160
2646 5 157 158 161
2647 2 159 158 160
2648 2 159 158 161
2649 2 160 158 161
2650 1 3971 3970 3972
2651 1 2864 2863 2865
2652 1 4358 4357 4359
2653 1 2480 2479 2481
2654 1 3794 3793 3795
2655 1 3653 3652 3654
2656 3 828 830 831
2657 4 828 830 832
2658 3 831 830 832
2659 3 827 828 829
2660 4 827 828 830
2661 3 829 828 830
2662 3 843 845 846
2663 4 843 845 847
2664 3 846 845 847
2665 1 3071 3070 3072
2666 5 997 998 999
2667 5 997 998 1000
2668 5 997 998 1001
2669 2 999 998 1000
2670 2 999 998 1001
2671 2 1000 998 1001
2672 4 995 997 998
2673 4 995 997 1002
2674 4 998 997 1002
2675 1 3482 3481 3483
2676 1 3431 3430 3432
2677 3 1486 1487 1488
2678 3 1486 1487 1499
2679 4 1488 1487 1499
2680 3 872 873 874
2681 4 872 873 875
2682 3 874 873 875
2683 3 1487 1488 1489
2684 4 1487 1488 1490
2685 3 1489 1488 1490
2686 1 2459 2458 2460
2687 1 4229 4228 4230
2688 1 3509 3508 3510
2689 3 1488 1490 1491
2690 4 1488 1490 1492
2691 3 1491 1490 1492
2692 1 4235 4234 4236
2693 1 4451 4450 4452
2694 3 1492 1497 1498
2695 4 1492 1497 1499
2696 3 1498 1497 1499
2697 4 1487 1499 1497
2698 3 1487 1499 1500
2699 3 1497 1499 1500
2700 5 1492 1493 1494
2701 5 1492 1493 1495
2702 5 1492 1493 1496
2703 2 1494 1493 1495
2704 2 1494 1493 1496
2705 2 1495 1493 1496
2706 4 1490 1492 1493
2707 4 1490 1492 1497
2708 4 1493 1492 1497
2709 3 1291 1292 1293
2710 3 1291 1292 1304
2711 4 1293 1292 1304
2712 3 947 948 949
2713 4 947 948 950
2714 3 949 948 950
2715 3 952 957 958
2716 4 952 957 959
2717 3 958 957 959
2718 4 947 959 957
2719 3 947 959 960
2720 3 957 959 960
2721 3 946 947 948
2722 3 946 947 959
2723 4 948 947 959
2724 3 948 950 951
2725 4 948 950 952
2726 3 951 950 952
2727 4 950 952 953
2728 4 950 952 957
2729 4 953 952 957
2730 3 262 267 268
2731 4 262 267 269
2732 3 268 267 269
2733 1 3008 3007 3009
2734 1 3086 3085 3087
2735 1 1886 1885 1887
2736 1 3014 3013 3015
2737 1 3464 3463 3465
2738 1 3863 3862 3864
2739 1 3530 3529 3531
2740 1 3986 3985 3987
2741 1 2138 2137 2139
2742 1 2273 2272 2274
2743 1 4436 4435 4437
2744 1 3107 3106 3108
2745 1 4178 4177 4179
2746 3 577 582 583
2747 4 577 582 584
2748 3 583 582 584
2749 3 1292 1293 1294
2750 4 1292 1293 1295
2751 3 1294 1293 1295
2752 1 3383 3382 3384
2753 1 3200 3199 3201
2754 1 3626 3625 3627
2755 1 3065 3064 3066
2756 1 4028 4027 4029
2757 1 3272 3271 3273
2758 1 3599 3598 3600
2759 1 3827 3826 3828
2760 1 4406 4405 4407
2761 1 1619 1618 1620
2762 1 2174 2173 2175
2763 3 511 512 513
2764 3 511 512 524
2765 4 513 512 524
2766 4 512 524 522
2767 3 512 524 525
2768 3 522 524 525
2769 1 4010 4009 4011
2770 1 2996 2995 2997
2771 1 4040 4039 4041
2772 1 3359 3358 3360
2773 1 4151 4150 4152
2774 1 3524 3523 3525
2775 1 4430 4429 4431
2776 1 3905 3904 3906
2777 1 3701 3700 3702
2778 1 3938 3937 3939
2779 1 2846 2845 2847
2780 3 1172 1173 1174
2781 4 1172 1173 1175
2782 3 1174 1173 1175
2783 3 1171 1172 1173
2784 3 1171 1172 1184
2785 4 1173 1172 1184
2786 1 3299 3298 3300
2787 4 1172 1184 1182
2788 3 1172 1184 1185
2789 3 1182 1184 1185
2790 4 1325 1327 1328
2791 4 1325 1327 1332
2792 4 1328 1327 1332
2793 5 1327 1328 1329
2794 5 1327 1328 1330
2795 5 1327 1328 1331
2796 2 1329 1328 1330
2797 2 1329 1328 1331
2798 2 1330 1328 1331
2799 3 1327 1332 1333
2800 4 1327 1332 1334
2801 3 1333 1332 1334
2802 4 1322 1334 1332
2803 3 1322 1334 1335
2804 3 1332 1334 1335
2805 3 1323 1325 1326
2806 4 1323 1325 1327
2807 3 1326 1325 1327
2808 3 1177 1182 1183
2809 4 1177 1182 1184
2810 3 1183 1182 1184
2811 3 1173 1175 1176
2812 4 1173 1175 1177
2813 3 1176 1175 1177
2814 4 1175 1177 1178
2815 4 1175 1177 1182
2816 4 1178 1177 1182
2817 1 4031 4030 4032
2818 5 1237 1238 1239
2819 5 1237 1238 1240
2820 5 1237 1238 1241
2821 2 1239 1238 1240
2822 2 1239 1238 1241
2823 2 1240 1238 1241
2824 3 1232 1233 1234
2825 4 1232 1233 1235
2826 3 1234 1233 1235
2827 3 1231 1232 1233
2828 3 1231 1232 1244
2829 4 1233 1232 1244
2830 3 1233 1235 1236
2831 4 1233 1235 1237
2832 3 1236 1235 1237
2833 4 1232 1244 1242
2834 3 1232 1244 1245
2835 3 1242 1244 1245
2836 3 1237 1242 1243
2837 4 1237 1242 1244
2838 3 1243 1242 1244
2839 4 1235 1237 1238
2840 4 1235 1237 1242
2841 4 1238 1237 1242
2842 3 1306 1307 1308
2843 3 1306 1307 1319
2844 4 1308 1307 1319
2845 1 4190 4189 4191
2846 3 512 513 514
2847 4 512 513 515
2848 3 514 513 515
2849 1 4259 4258 4260
2850 1 3254 3253 3255
2851 1 3326 3325 3327
2852 1 1997 1996 1998
2853 1 4070 4069 4071
2854 1 3560 3559 3561
2855 1 4445 4444 4446
2856 1 3095 3094 3096
2857 1 3761 3760 3762
2858 1 4196 4195 4197
2859 1 3821 3820 3822
2860 1 3785 3784 3786
2861 1 3488 3487 3489
2862 1 3248 3247 3249
2863 1 3593 3592 3594
2864 5 1177 1178 1179
2865 5 1177 1178 1180
2866 5 1177 1178 1181
2867 2 1179 1178 1180
2868 2 1179 1178 1181
2869 2 1180 1178 1181
2870 1 3023 3022 3024
2871 3 902 903 904
2872 4 902 903 905
2873 3 904 903 905
2874 3 907 912 913
2875 4 907 912 914
2876 3 913 912 914
2877 4 905 907 908
2878 4 905 907 912
2879 4 908 907 912
2880 3 903 905 906
2881 4 903 905 907
2882 3 906 905 907
2883 1 4496 4495 4497
2884 5 907 908 909
2885 5 907 908 910
2886 5 907 908 911
2887 2 909 908 910
2888 2 909 908 911
2889 2 910 908 911
2890 4 902 914 912
2891 3 902 914 915
2892 3 912 914 915
2893 3 901 902 903
2894 3 901 902 914
2895 4 903 902 914
2896 4 1082 1094 1092
2897 3 1082 1094 1095
2898 3 1092 1094 1095
2899 3 1087 1092 1093
2900 4 1087 1092 1094
2901 3 1093 1092 1094
2902 1 4310 4309 4311
2903 4 827 839 837
2904 3 827 839 840
2905 3 837 839 840
2906 1 3707 3706 3708
2907 1 3647 3646 3648
2908 4 1142 1154 1152
2909 3 1142 1154 1155
2910 3 1152 1154 1155
2911 3 1141 1142 1143
2912 3 1141 1142 1154
2913 4 1143 1142 1154
2914 4 1145 1147 1148
2915 4 1145 1147 1152
2916 4 1148 1147 1152
2917 3 1142 1143 1144
2918 4 1142 1143 1145
2919 3 1144 1143 1145
2920 3 1143 1145 1146
2921 4 1143 1145 1147
2922 3 1146 1145 1147
2923 1 3788 3787 3789
2924 1 3806 3805 3807
2925 3 1147 1152 1153
2926 4 1147 1152 1154
2927 3 1153 1152 1154
2928 1 3407 3406 3408
2929 1 3092 3091 3093
2930 1 3422 3421 3423
2931 5 1147 1148 1149
2932 5 1147 1148 1150
2933 5 1147 1148 1151
2934 2 1149 1148 1150
2935 2 1149 1148 1151
2936 2 1150 1148 1151
2937 3 1082 1083 1084
2938 4 1082 1083 1085
2939 3 1084 1083 1085
2940 3 1081 1082 1083
2941 3 1081 1082 1094
2942 4 1083 1082 1094
2943 1 2984 2983 2985
2944 1 3752 3751 3753
2945 3 1083 1085 1086
2946 4 1083 1085 1087
2947 3 1086 1085 1087
2948 1 3404 3403 3405
2949 1 3275 3274 3276
2950 1 3890 3889 3891
2951 1 3596 3595 3597
2952 4 1085 1087 1088
2953 4 1085 1087 1092
2954 4 1088 1087 1092
2955 5 1087 1088 1089
2956 5 1087 1088 1090
2957 5 1087 1088 1091
2958 2 1089 1088 1090
2959 2 1089 1088 1091
2960 2 1090 1088 1091
2961 1 4289 4288 4290
2962 4 1457 1469 1467
2963 3 1457 1469 1470
2964 3 1467 1469 1470
2965 3 1456 1457 1458
2966 3 1456 1457 1469
2967 4 1458 1457 1469
2968 3 1457 1458 1459
2969 4 1457 1458 1460
2970 3 1459 1458 1460
2971 1 3035 3034 3036
2972 3 1462 1467 1468
2973 4 1462 1467 1469
2974 3 1468 1467 1469
2975 4 1460 1462 1463
2976 4 1460 1462 1467
2977 4 1463 1462 1467
2978 3 1458 1460 1461
2979 4 1458 1460 1462
2980 3 1461 1460 1462
2981 1 3878 3877 3879
2982 4 1247 1259 1257
2983 3 1247 1259 1260
2984 3 1257 1259 1260
2985 3 1252 1257 1258
2986 4 1252 1257 1259
2987 3 1258 1257 1259
2988 3 1246 1247 1248
2989 3 1246 1247 1259
2990 4 1248 1247 1259
2991 3 961 962 963
2992 3 961 962 974
2993 4 963 962 974
2994 3 991 992 993
2995 3 991 992 1004
2996 4 993 992 1004
2997 3 832 837 838
2998 4 832 837 839
2999 3 838 837 839
3000 1 2885 2884 2886
3001 4 830 832 833
3002 4 830 832 837
3003 4 833 832 837
3004 1 4145 4144 4146
3005 1 4160 4159 4161
3006 3 993 995 996
3007 4 993 995 997
3008 3 996 995 997
3009 3 992 993 994
3010 4 992 993 995
3011 3 994 993 995
3012 1 3302 3301 3303
3013 1 3572 3571 3573
3014 5 832 833 834
3015 5 832 833 835
3016 5 832 833 836
3017 2 834 833 835
3018 2 834 833 836
3019 2 835 833 836
3020 1 3476 3475 3477
3021 1 4082 4081 4083
3022 1 4175 4174 4176
3023 1 4457 4456 4458
3024 1 3608 3607 3609
3025 1 4052 4051 4053
3026 3 1096 1097 1098
3027 3 1096 1097 1109
3028 4 1098 1097 1109
3029 4 1097 1109 1107
3030 3 1097 1109 1110
3031 3 1107 1109 1110
3032 3 1098 1100 1101
3033 4 1098 1100 1102
3034 3 1101 1100 1102
3035 3 1097 1098 1099
3036 4 1097 1098 1100
3037 3 1099 1098 1100
3038 4 1100 1102 1103
3039 4 1100 1102 1107
3040 4 1103 1102 1107
3041 1 4076 4075 4077
3042 1 4142 4141 4143
3043 1 3695 3694 3696
3044 1 3374 3373 3375
3045 1 3236 3235 3237
3046 1 3074 3073 3075
3047 1 4097 4096 4098
3048 1 3077 3076 3078
3049 1 2975 2974 2976
3050 1 4346 4345 4347
3051 5 1102 1103 1104
3052 5 1102 1103 1105
3053 5 1102 1103 1106
3054 2 1104 1103 1105
3055 2 1104 1103 1106
3056 2 1105 1103 1106
3057 1 3278 3277 3279
3058 3 1102 1107 1108
3059 4 1102 1107 1109
3060 3 1108 1107 1109
3061 3 1217 1218 1219
3062 4 1217 1218 1220
3063 3 1219 1218 1220
3064 1 3164 3163 3165
3065 1 3602 3601 3603
3066 1 4223 4222 4224
3067 3 517 522 523
3068 4 517 522 524
3069 3 523 522 524
3070 1 3683 3682 3684
3071 4 515 517 518
3072 4 515 517 522
3073 4 518 517 522
3074 5 517 518 519
3075 5 517 518 520
3076 5 517 518 521
3077 2 519 518 520
3078 2 519 518 521
3079 2 520 518 521
3080 1 3587 3586 3588
3081 1 3005 3004 3006
3082 1 2945 2944 2946
3083 1 3158 3157 3159
3084 1 3551 3550 3552
3085 1 3989 3988 3990
3086 1 1610 1609 1611
3087 1 3332 3331 3333
3088 1 4283 4282 4284
3089 1 3950 3949 3951
3090 1 4046 4045 4047
3091 1 3527 3526 3528
3092 1 4214 4213 4215
3093 1 3980 3979 3981
3094 1 3224 3223 3225
3095 1 3974 3973 3975
3096 1 3566 3565 3567
3097 1 2939 2938 2940
3098 3 1307 1308 1309
3099 4 1307 1308 1310
3100 3 1309 1308 1310
3101 3 1308 1310 1311
3102 4 1308 1310 1312
3103 3 1311 1310 1312
3104 3 1312 1317 1318
3105 4 1312 1317 1319
3106 3 1318 1317 1319
3107 4 1310 1312 1313
3108 4 1310 1312 1317
3109 4 1313 1312 1317
3110 5 1312 1313 1314
3111 5 1312 1313 1315
3112 5 1312 1313 1316
3113 2 1314 1313 1315
3114 2 1314 1313 1316
3115 2 1315 1313 1316
3116 4 1307 1319 1317
3117 3 1307 1319 1320
3118 3 1317 1319 1320
3119 3 382 387 388
3120 4 382 387 389
3121 3 388 387 389
3122 1 2168 2167 2169
3123 3 378 380 381
3124 4 378 380 382
3125 3 381 380 382
3126 4 380 382 383
3127 4 380 382 387
3128 4 383 382 387
3129 1 3899 3898 3900
3130 5 382 383 384
3131 5 382 383 385
3132 5 382 383 386
3133 2 384 383 385
3134 2 384 383 386
3135 2 385 383 386
3136 1 3521 3520 3522
3137 1 3584 3583 3585
3138 1 1556 1555 1557
3139 1 3389 3388 3390
3140 1 4448 4447 4449
3141 1 3209 3208 3210
3142 1 3758 3757 3759
3143 1 2774 2773 2775
3144 1 1706 1705 1707
3145 1 3368 3367 3369
3146 1 3629 3628 3630
3147 3 1187 1188 1189
3148 4 1187 1188 1190
3149 3 1189 1188 1190
3150 3 1322 1323 1324
3151 4 1322 1323 1325
3152 3 1324 1323 1325
3153 3 1321 1322 1323
3154 3 1321 1322 1334
3155 4 1323 1322 1334
3156 1 3026 3025 3027
3157 1 4211 4210 4212
3158 1 3656 3655 3657
3159 1 4130 4129 4131
3160 1 1769 1768 1770
3161 1 2111 2110 2112
3162 1 3356 3355 3357
3163 1 4376 4375 4377
3164 1 4244 4243 4245
3165 1 3686 3685 3687
3166 1 3983 3982 3984
3167 1 4319 4318 4320
3168 1 3305 3304 3306
3169 1 3734 3733 3735
3170 1 4181 4180 4182
3171 1 3749 3748 3750
3172 1 2810 2809 2811
3173 1 3479 3478 3480
3174 1 2669 2668 2670
3175 1 4079 4078 4080
3176 1 3104 3103 3105
3177 1 3335 3334 3336
3178 1 4487 4486 4488
3179 1 4013 4012 4014
3180 1 4199 4198 4200
3181 1 3617 3616 3618
3182 3 1188 1190 1191
3183 4 1188 1190 1192
3184 3 1191 1190 1192
3185 4 1190 1192 1193
3186 4 1190 1192 1197
3187 4 1193 1192 1197
3188 5 1192 1193 1194
3189 5 1192 1193 1195
3190 5 1192 1193 1196
3191 2 1194 1193 1195
3192 2 1194 1193 1196
3193 2 1195 1193 1196
3194 4 1187 1199 1197
3195 3 1187 1199 1200
3196 3 1197 1199 1200
3197 3 1192 1197 1198
3198 4 1192 1197 1199
3199 3 1198 1197 1199
3200 1 3680 3679 3681
3201 3 1186 1187 1188
3202 3 1186 1187 1199
3203 4 1188 1187 1199
3204 1 3080 3079 3081
3205 1 3101 3100 3102
3206 1 3611 3610 3612
3207 1 3578 3577 3579
3208 1 3872 3871 3873
3209 1 3923 3922 3924
3210 3 1353 1355 1356
3211 4 1353 1355 1357
3212 3 1356 1355 1357
3213 5 1357 1358 1359
3214 5 1357 1358 1360
3215 5 1357 1358 1361
3216 2 1359 1358 1360
3217 2 1359 1358 1361
3218 2 1360 1358 1361
3219 3 962 963 964
3220 4 962 963 965
3221 3 964 963 965
3222 1 3497 3496 3498
3223 3 842 843 844
3224 4 842 843 845
3225 3 844 843 845
3226 1 2147 2146 2148
3227 1 3716 3715 3717
3228 1 3557 3556 3558
3229 1 2180 2179 2181
3230 1 3149 3148 3150
3231 1 3038 3037 3039
3232 1 3440 3439 3441
3233 1 4403 4402 4404
3234 1 4121 4120 4122
3235 1 3167 3166 3168
3236 1 3671 3670 3672
3237 1 4184 4183 4185
3238 1 3644 3643 3645
3239 1 1838 1837 1839
3240 5 1462 1463 1464
3241 5 1462 1463 1465
3242 5 1462 1463 1466
3243 2 1464 1463 1465
3244 2 1464 1463 1466
3245 2 1465 1463 1466
3246 1 3455 3454 3456
3247 1 3515 3514 3516
3248 1 4016 4015 4017
3249 1 4061 4060 4062
3250 1 3731 3730 3732
3251 4 1352 1364 1362
3252 3 1352 1364 1365
3253 3 1362 1364 1365
3254 3 1351 1352 1353
3255 3 1351 1352 1364
3256 4 1353 1352 1364
3257 4 1355 1357 1358
3258 4 1355 1357 1362
3259 4 1358 1357 1362
3260 3 1352 1353 1354
3261 4 1352 1353 1355
3262 3 1354 1353 1355
3263 1 3338 3337 3339
3264 1 4361 4360 4362
3265 3 1357 1362 1363
3266 4 1357 1362 1364
3267 3 1363 1362 1364
3268 1 3467 3466 3468
3269 5 262 263 264
3270 5 262 263 265
3271 5 262 263 266
3272 2 264 263 265
3273 2 264 263 266
3274 2 265 263 266
3275 4 572 584 582
3276 3 572 584 585
3277 3 582 584 585
3278 1 3575 3574 3576
3279 1 4301 4300 4302
3280 1 4025 4024 4026
3281 1 3641 3640 3642
3282 1 3536 3535 3537
3283 1 4265 4264 4266
3284 1 3215 3214 3216
3285 1 1787 1786 1788
3286 5 1027 1028 1029
3287 5 1027 1028 1030
3288 5 1027 1028 1031
3289 2 1029 1028 1030
3290 2 1029 1028 1031
3291 2 1030 1028 1031
3292 3 1023 1025 1026
3293 4 1023 1025 1027
3294 3 1026 1025 1027
3295 3 1022 1023 1024
3296 4 1022 1023 1025
3297 3 1024 1023 1025
3298 4 1025 1027 1028
3299 4 1025 1027 1032
3300 4 1028 1027 1032
3301 3 1021 1022 1023
3302 3 1021 1022 1034
3303 4 1023 1022 1034
3304 1 3947 3946 3948
3305 1 3098 3097 3099
3306 1 3860 3859 3861
3307 1 4085 4084 4086
3308 1 3836 3835 3837
3309 1 3722 3721 3723
3310 1 4064 4063 4065
3311 1 3293 3292 3294
3312 1 4469 4468 4470
3313 1 3668 3667 3669
3314 1 4034 4033 4035
3315 1 2990 2989 2991
3316 1 3710 3709 3711
3317 1 3893 3892 3894
3318 1 3230 3229 3231
3319 1 3779 3778 3780
3320 3 1222 1227 1228
3321 4 1222 1227 1229
3322 3 1228 1227 1229
3323 4 965 967 968
3324 4 965 967 972
3325 4 968 967 972
3326 1 3977 3976 3978
3327 3 1027 1032 1033
3328 4 1027 1032 1034
3329 3 1033 1032 1034
3330 4 1022 1034 1032
3331 3 1022 1034 1035
3332 3 1032 1034 1035
3333 1 3392 3391 3393
3334 1 4088 4087 4089
3335 1 4133 4132 4134
3336 1 2969 2968 2970
3337 1 4169 4168 4170
3338 1 2723 2722 2724
3339 1 3206 3205 3207
3340 1 4391 4390 4392
3341 1 3410 3409 3411
3342 1 4298 4297 4299
3343 1 2942 2941 2943
3344 1 4379 4378 4380
3345 1 3179 3178 3180
3346 1 3674 3673 3675
3347 5 967 968 969
3348 5 967 968 970
3349 5 967 968 971
3350 2 969 968 970
3351 2 969 968 971
3352 2 970 968 971
3353 3 931 932 933
3354 3 931 932 944
3355 4 933 932 944
3356 3 933 935 936
3357 4 933 935 937
3358 3 936 935 937
3359 3 932 933 934
3360 4 932 933 935
3361 3 934 933 935
3362 4 935 937 938
3363 4 935 937 942
3364 4 938 937 942
3365 5 937 938 939
3366 5 937 938 940
3367 5 937 938 941
3368 2 939 938 940
3369 2 939 938 941
3370 2 940 938 941
3371 4 932 944 942
3372 3 932 944 945
3373 3 942 944 945
3374 3 937 942 943
3375 4 937 942 944
3376 3 943 942 944
3377 4 1397 1409 1407
3378 3 1397 1409 1410
3379 3 1407 1409 1410
3380 3 1396 1397 1398
3381 3 1396 1397 1409
3382 4 1398 1397 1409
3383 3 1397 1398 1399
3384 4 1397 1398 1400
3385 3 1399 1398 1400
3386 3 1398 1400 1401
3387 4 1398 1400 1402
3388 3 1401 1400 1402
3389 3 1402 1407 1408
3390 4 1402 1407 1409
3391 3 1408 1407 1409
3392 4 1400 1402 1403
3393 4 1400 1402 1407
3394 4 1403 1402 1407
3395 5 1402 1403 1404
3396 5 1402 1403 1405
3397 5 1402 1403 1406
3398 2 1404 1403 1405
3399 2 1404 1403 1406
3400 2 1405 1403 1406

Dihedrals

1 3 182 183 185 186
2 1 182 183 185 187
3 3 184 183 185 186
4 3 184 183 185 187
5 3 184 183 182 194
6 1 185 183 182 194
7 3 183 185 187 188
8 1 183 185 187 192
9 3 186 185 187 188
10 3 186 185 187 192
11 1 182 194 192 187
12 3 182 194 192 193
13 3 189 188 187 192
14 3 190 188 187 192
15 3 191 188 187 192
16 2 185 187 188 189
17 3 185 187 188 190
18 3 185 187 188 191
19 3 185 187 192 193
20 1 185 187 192 194
21 3 188 187 192 193
22 3 188 187 192 194
23 3 181 182 183 184
24 3 181 182 183 185
25 3 181 182 194 192
26 3 181 182 194 195
27 1 183 182 194 192
28 3 183 182 194 195
29 3 187 192 194 195
30 3 193 192 194 195
31 1 812 824 822 817
32 3 812 824 822 823
33 3 196 197 198 199
34 3 196 197 198 200
35 3 196 197 209 207
36 3 196 197 209 210
37 1 198 197 209 207
38 3 198 197 209 210
39 3 197 198 200 201
40 1 197 198 200 202
41 3 199 198 200 201
42 3 199 198 200 202
43 3 199 198 197 209
44 1 200 198 197 209
45 3 811 812 813 814
46 3 811 812 813 815
47 3 811 812 824 822
48 3 811 812 824 825
49 1 813 812 824 822
50 3 813 812 824 825
51 3 813 815 817 818
52 1 813 815 817 822
53 3 816 815 817 818
54 3 816 815 817 822
55 3 812 813 815 816
56 1 812 813 815 817
57 3 814 813 815 816
58 3 814 813 815 817
59 3 814 813 812 824
60 1 815 813 812 824
61 1 197 209 207 202
62 3 197 209 207 208
63 3 817 822 824 825
64 3 823 822 824 825
65 3 819 818 817 822
66 3 820 818 817 822
67 3 821 818 817 822
68 2 815 817 818 819
69 3 815 817 818 820
70 3 815 817 818 821
71 3 815 817 822 823
72 1 815 817 822 824
73 3 818 817 822 823
74 3 818 817 822 824
75 3 202 207 209 210
76 3 208 207 209 210
77 2 200 202 203 204
78 3 200 202 203 205
79 3 200 202 203 206
80 3 200 202 207 208
81 1 200 202 207 209
82 3 203 202 207 208
83 3 203 202 207 209
84 2 35 37 38 39
85 3 35 37 38 40
86 3 35 37 38 41
87 3 35 37 42 43
88 1 35 37 42 44
89 3 38 37 42 43
90 3 38 37 42 44
91 3 39 38 37 42
92 3 40 38 37 42
93 3 41 38 37 42
94 3 37 42 44 45
95 3 43 42 44 45
96 1 32 44 42 37
97 3 32 44 42 43
98 3 33 35 37 38
99 1 33 35 37 42
100 3 36 35 37 38
101 3 36 35 37 42
102 3 31 32 33 34
103 3 31 32 33 35
104 3 31 32 44 42
105 3 31 32 44 45
106 1 33 32 44 42
107 3 33 32 44 45
108 3 32 33 35 36
109 1 32 33 35 37
110 3 34 33 35 36
111 3 34 33 35 37
112 3 34 33 32 44
113 1 35 33 32 44
114 1 122 134 132 127
115 3 122 134 132 133
116 3 121 122 123 124
117 3 121 122 123 125
118 3 121 122 134 132
119 3 121 122 134 135
120 1 123 122 134 132
121 3 123 122 134 135
122 2 170 172 173 174
123 3 170 172 173 175
124 3 170 172 173 176
125 3 170 172 177 178
126 1 170 172 177 179
127 3 173 172 177 178
128 3 173 172 177 179
129 3 204 203 202 207
130 3 205 203 202 207
131 3 206 203 202 207
132 3 1374 1373 1372 1377
133 3 1375 1373 1372 1377
134 3 1376 1373 1372 1377
135 3 1368 1370 1372 1373
136 1 1368 1370 1372 1377
137 3 1371 1370 1372 1373
138 3 1371 1370 1372 1377
139 2 1370 1372 1373 1374
140 3 1370 1372 1373 1375
141 3 1370 1372 1373 1376
142 3 1370 1372 1377 1378
143 1 1370 1372 1377 1379
144 3 1373 1372 1377 1378
145 3 1373 1372 1377 1379
146 3 1367 1368 1370 1371
147 1 1367 1368 1370 1372
148 3 1369 1368 1370 1371
149 3 1369 1368 1370 1372
150 3 1369 1368 1367 1379
151 1 1370 1368 1367 1379
152 3 1372 1377 1379 1380
153 3 1378 1377 1379 1380
154 1 1367 1379 1377 1372
155 3 1367 1379 1377 1378
156 3 984 983 982 987
157 3 985 983 982 987
158 3 986 983 982 987
159 2 980 982 983 984
160 3 980 982 983 985
161 3 980 982 983 986
162 3 980 982 987 988
163 1 980 982 987 989
164 3 983 982 987 988
165 3 983 982 987 989
166 3 978 980 982 983
167 1 978 980 982 987
168 3 981 980 982 983
169 3 981 980 982 987
170 1 977 989 987 982
171 3 977 989 987 988
172 3 982 987 989 990
173 3 988 987 989 990
174 3 976 977 978 979
175 3 976 977 978 980
176 3 976 977 989 987
177 3 976 977 989 990
178 1 978 977 989 987
179 3 978 977 989 990
180 3 977 978 980 981
181 1 977 978 980 982
182 3 979 978 980 981
183 3 979 978 980 982
184 3 979 978 977 989
185 1 980 978 977 989
186 3 1269 1268 1267 1272
187 3 1270 1268 1267 1272
188 3 1271 1268 1267 1272
189 1 1442 1454 1452 1447
190 3 1442 1454 1452 1453
191 3 489 488 487 492
192 3 490 488 487 492
193 3 491 488 487 492
194 3 482 483 485 486
195 1 482 483 485 487
196 3 484 483 485 486
197 3 484 483 485 487
198 3 484 483 482 494
199 1 485 483 482 494
200 3 481 482 483 484
201 3 481 482 483 485
202 3 481 482 494 492
203 3 481 482 494 495
204 1 483 482 494 492
205 3 483 482 494 495
206 3 487 492 494 495
207 3 493 492 494 495
208 2 485 487 488 489
209 3 485 487 488 490
210 3 485 487 488 491
211 3 485 487 492 493
212 1 485 487 492 494
213 3 488 487 492 493
214 3 488 487 492 494
215 3 483 485 487 488
216 1 483 485 487 492
217 3 486 485 487 488
218 3 486 485 487 492
219 1 482 494 492 487
220 3 482 494 492 493
221 1 407 419 417 412
222 3 407 419 417 418
223 3 406 407 408 409
224 3 406 407 408 410
225 3 406 407 419 417
226 3 406 407 419 420
227 1 408 407 419 417
228 3 408 407 419 420
229 3 407 408 410 411
230 1 407 408 410 412
231 3 409 408 410 411
232 3 409 408 410 412
233 3 409 408 407 419
234 1 410 408 407 419
235 3 412 417 419 420
236 3 418 417 419 420
237 3 408 410 412 413
238 1 408 410 412 417
239 3 411 410 412 413
240 3 411 410 412 417
241 2 410 412 413 414
242 3 410 412 413 415
243 3 410 412 413 416
244 3 410 412 417 418
245 1 410 412 417 419
246 3 413 412 417 418
247 3 413 412 417 419
248 2 140 142 143 144
249 3 140 142 143 145
250 3 140 142 143 146
251 3 140 142 147 148
252 1 140 142 147 149
253 3 143 142 147 148
254 3 143 142 147 149
255 3 144 143 142 147
256 3 145 143 142 147
257 3 146 143 142 147
258 3 142 147 149 150
259 3 148 147 149 150
260 3 138 140 142 143
261 1 138 140 142 147
262 3 141 140 142 143
263 3 141 140 142 147
264 3 137 138 140 141
265 1 137 138 140 142
266 3 139 138 140 141
267 3 139 138 140 142
268 3 139 138 137 149
269 1 140 138 137 149
270 3 136 137 138 139
271 3 136 137 138 140
272 3 136 137 149 147
273 3 136 137 149 150
274 1 138 137 149 147
275 3 138 137 149 150
276 3 153 155 157 158
277 1 153 155 157 162
278 3 156 155 157 158
279 3 156 155 157 162
280 3 152 153 155 156
281 1 152 153 155 157
282 3 154 153 155 156
283 3 154 153 155 157
284 3 154 153 152 164
285 1 155 153 152 164
286 2 155 157 158 159
287 3 155 157 158 160
288 3 155 157 158 161
289 3 155 157 162 163
290 1 155 157 162 164
291 3 158 157 162 163
292 3 158 157 162 164
293 3 151 152 153 154
294 3 151 152 153 155
295 3 151 152 164 162
296 3 151 152 164 165
297 1 153 152 164 162
298 3 153 152 164 165
299 3 157 162 164 165
300 3 163 162 164 165
301 1 152 164 162 157
302 3 152 164 162 163
303 3 247 252 254 255
304 3 253 252 254 255
305 2 245 247 248 249
306 3 245 247 248 250
307 3 245 247 248 251
308 3 245 247 252 253
309 1 245 247 252 254
310 3 248 247 252 253
311 3 248 247 252 254
312 1 242 254 252 247
313 3 242 254 252 253
314 3 557 558 560 561
315 1 557 558 560 562
316 3 559 558 560 561
317 3 559 558 560 562
318 3 559 558 557 569
319 1 560 558 557 569
320 3 168 170 172 173
321 1 168 170 172 177
322 3 171 170 172 173
323 3 171 170 172 177
324 3 174 173 172 177
325 3 175 173 172 177
326 3 176 173 172 177
327 3 783 785 787 788
328 1 783 785 787 792
329 3 786 785 787 788
330 3 786 785 787 792
331 3 166 167 168 169
332 3 166 167 168 170
333 3 166 167 179 177
334 3 166 167 179 180
335 1 168 167 179 177
336 3 168 167 179 180
337 3 46 47 48 49
338 3 46 47 48 50
339 3 46 47 59 57
340 3 46 47 59 60
341 1 48 47 59 57
342 3 48 47 59 60
343 3 52 57 59 60
344 3 58 57 59 60
345 1 47 59 57 52
346 3 47 59 57 58
347 2 50 52 53 54
348 3 50 52 53 55
349 3 50 52 53 56
350 3 50 52 57 58
351 1 50 52 57 59
352 3 53 52 57 58
353 3 53 52 57 59
354 3 167 168 170 171
355 1 167 168 170 172
356 3 169 168 170 171
357 3 169 168 170 172
358 3 169 168 167 179
359 1 170 168 167 179
360 3 48 50 52 53
361 1 48 50 52 57
362 3 51 50 52 53
363 3 51 50 52 57
364 3 47 48 50 51
365 1 47 48 50 52
366 3 49 48 50 51
367 3 49 48 50 52
368 3 49 48 47 59
369 1 50 48 47 59
370 3 54 53 52 57
371 3 55 53 52 57
372 3 56 53 52 57
373 1 707 719 717 712
374 3 707 719 717 718
375 3 706 707 708 709
376 3 706 707 708 710
377 3 706 707 719 717
378 3 706 707 719 720
379 1 708 707 719 717
380 3 708 707 719 720
381 3 782 783 785 786
382 1 782 783 785 787
383 3 784 783 785 786
384 3 784 783 785 787
385 3 784 783 782 794
386 1 785 783 782 794
387 1 167 179 177 172
388 3 167 179 177 178
389 3 172 177 179 180
390 3 178 177 179 180
391 3 849 848 847 852
392 3 850 848 847 852
393 3 851 848 847 852
394 3 586 587 588 589
395 3 586 587 588 590
396 3 586 587 599 597
397 3 586 587 599 600
398 1 588 587 599 597
399 3 588 587 599 600
400 3 712 717 719 720
401 3 718 717 719 720
402 2 710 712 713 714
403 3 710 712 713 715
404 3 710 712 713 716
405 3 710 712 717 718
406 1 710 712 717 719
407 3 713 712 717 718
408 3 713 712 717 719
409 3 707 708 710 711
410 1 707 708 710 712
411 3 709 708 710 711
412 3 709 708 710 712
413 3 709 708 707 719
414 1 710 708 707 719
415 3 708 710 712 713
416 1 708 710 712 717
417 3 711 710 712 713
418 3 711 710 712 717
419 3 714 713 712 717
420 3 715 713 712 717
421 3 716 713 712 717
422 3 534 533 532 537
423 3 535 533 532 537
424 3 536 533 532 537
425 3 528 530 532 533
426 1 528 530 532 537
427 3 531 530 532 533
428 3 531 530 532 537
429 2 530 532 533 534
430 3 530 532 533 535
431 3 530 532 533 536
432 3 530 532 537 538
433 1 530 532 537 539
434 3 533 532 537 538
435 3 533 532 537 539
436 3 532 537 539 540
437 3 538 537 539 540
438 1 527 539 537 532
439 3 527 539 537 538
440 3 391 392 393 394
441 3 391 392 393 395
442 3 391 392 404 402
443 3 391 392 404 405
444 1 393 392 404 402
445 3 393 392 404 405
446 2 395 397 398 399
447 3 395 397 398 400
448 3 395 397 398 401
449 3 395 397 402 403
450 1 395 397 402 404
451 3 398 397 402 403
452 3 398 397 402 404
453 3 393 395 397 398
454 1 393 395 397 402
455 3 396 395 397 398
456 3 396 395 397 402
457 3 76 77 78 79
458 3 76 77 78 80
459 3 76 77 89 87
460 3 76 77 89 90
461 1 78 77 89 87
462 3 78 77 89 90
463 3 392 393 395 396
464 1 392 393 395 397
465 3 394 393 395 396
466 3 394 393 395 397
467 3 394 393 392 404
468 1 395 393 392 404
469 3 77 78 80 81
470 1 77 78 80 82
471 3 79 78 80 81
472 3 79 78 80 82
473 3 79 78 77 89
474 1 80 78 77 89
475 1 77 89 87 82
476 3 77 89 87 88
477 3 472 477 479 480
478 3 478 477 479 480
479 1 467 479 477 472
480 3 467 479 477 478
481 3 527 528 530 531
482 1 527 528 530 532
483 3 529 528 530 531
484 3 529 528 530 532
485 3 529 528 527 539
486 1 530 528 527 539
487 3 526 527 528 529
488 3 526 527 528 530
489 3 526 527 539 537
490 3 526 527 539 540
491 1 528 527 539 537
492 3 528 527 539 540
493 3 277 282 284 285
494 3 283 282 284 285
495 1 272 284 282 277
496 3 272 284 282 283
497 3 271 272 273 274
498 3 271 272 273 275
499 3 271 272 284 282
500 3 271 272 284 285
501 1 273 272 284 282
502 3 273 272 284 285
503 3 272 273 275 276
504 1 272 273 275 277
505 3 274 273 275 276
506 3 274 273 275 277
507 3 274 273 272 284
508 1 275 273 272 284
509 2 275 277 278 279
510 3 275 277 278 280
511 3 275 277 278 281
512 3 275 277 282 283
513 1 275 277 282 284
514 3 278 277 282 283
515 3 278 277 282 284
516 3 273 275 277 278
517 1 273 275 277 282
518 3 276 275 277 278
519 3 276 275 277 282
520 3 2 3 5 6
521 1 2 3 5 7
522 3 4 3 5 6
523 3 4 3 5 7
524 3 4 3 2 14
525 1 5 3 2 14
526 3 414 413 412 417
527 3 415 413 412 417
528 3 416 413 412 417
529 3 107 108 110 111
530 1 107 108 110 112
531 3 109 108 110 111
532 3 109 108 110 112
533 3 109 108 107 119
534 1 110 108 107 119
535 3 1218 1220 1222 1223
536 1 1218 1220 1222 1227
537 3 1221 1220 1222 1223
538 3 1221 1220 1222 1227
539 1 137 149 147 142
540 3 137 149 147 148
541 2 470 472 473 474
542 3 470 472 473 475
543 3 470 472 473 476
544 3 470 472 477 478
545 1 470 472 477 479
546 3 473 472 477 478
547 3 473 472 477 479
548 3 468 470 472 473
549 1 468 470 472 477
550 3 471 470 472 473
551 3 471 470 472 477
552 3 466 467 468 469
553 3 466 467 468 470
554 3 466 467 479 477
555 3 466 467 479 480
556 1 468 467 479 477
557 3 468 467 479 480
558 3 467 468 470 471
559 1 467 468 470 472
560 3 469 468 470 471
561 3 469 468 470 472
562 3 469 468 467 479
563 1 470 468 467 479
564 3 474 473 472 477
565 3 475 473 472 477
566 3 476 473 472 477
567 3 676 677 678 679
568 3 676 677 678 680
569 3 676 677 689 687
570 3 676 677 689 690
571 1 678 677 689 687
572 3 678 677 689 690
573 3 677 678 680 681
574 1 677 678 680 682
575 3 679 678 680 681
576 3 679 678 680 682
577 3 679 678 677 689
578 1 680 678 677 689
579 3 682 687 689 690
580 3 688 687 689 690
581 2 680 682 683 684
582 3 680 682 683 685
583 3 680 682 683 686
584 3 680 682 687 688
585 1 680 682 687 689
586 3 683 682 687 688
587 3 683 682 687 689
588 3 678 680 682 683
589 1 678 680 682 687
590 3 681 680 682 683
591 3 681 680 682 687
592 3 684 683 682 687
593 3 685 683 682 687
594 3 686 683 682 687
595 3 1 2 3 4
596 3 1 2 3 5
597 3 1 2 14 12
598 3 1 2 14 15
599 1 3 2 14 12
600 3 3 2 14 15
601 3 339 338 337 342
602 3 340 338 337 342
603 3 341 338 337 342
604 3 108 110 112 113
605 1 108 110 112 117
606 3 111 110 112 113
607 3 111 110 112 117
608 3 106 107 108 109
609 3 106 107 108 110
610 3 106 107 119 117
611 3 106 107 119 120
612 1 108 107 119 117
613 3 108 107 119 120
614 1 107 119 117 112
615 3 107 119 117 118
616 3 112 117 119 120
617 3 118 117 119 120
618 2 110 112 113 114
619 3 110 112 113 115
620 3 110 112 113 116
621 3 110 112 117 118
622 1 110 112 117 119
623 3 113 112 117 118
624 3 113 112 117 119
625 3 333 335 337 338
626 1 333 335 337 342
627 3 336 335 337 338
628 3 336 335 337 342
629 2 335 337 338 339
630 3 335 337 338 340
631 3 335 337 338 341
632 3 335 337 342 343
633 1 335 337 342 344
634 3 338 337 342 343
635 3 338 337 342 344
636 3 332 333 335 336
637 1 332 333 335 337
638 3 334 333 335 336
639 3 334 333 335 337
640 3 334 333 332 344
641 1 335 333 332 344
642 3 331 332 333 334
643 3 331 332 333 335
644 3 331 332 344 342
645 3 331 332 344 345
646 1 333 332 344 342
647 3 333 332 344 345
648 3 114 113 112 117
649 3 115 113 112 117
650 3 116 113 112 117
651 3 286 287 288 289
652 3 286 287 288 290
653 3 286 287 299 297
654 3 286 287 299 300
655 1 288 287 299 297
656 3 288 287 299 300
657 3 288 290 292 293
658 1 288 290 292 297
659 3 291 290 292 293
660 3 291 290 292 297
661 3 287 288 290 291
662 1 287 288 290 292
663 3 289 288 290 291
664 3 289 288 290 292
665 3 289 288 287 299
666 1 290 288 287 299
667 2 290 292 293 294
668 3 290 292 293 295
669 3 290 292 293 296
670 3 290 292 297 298
671 1 290 292 297 299
672 3 293 292 297 298
673 3 293 292 297 299
674 3 337 342 344 345
675 3 343 342 344 345
676 1 332 344 342 337
677 3 332 344 342 343
678 3 294 293 292 297
679 3 295 293 292 297
680 3 296 293 292 297
681 1 287 299 297 292
682 3 287 299 297 298
683 3 292 297 299 300
684 3 298 297 299 300
685 3 1447 1452 1454 1455
686 3 1453 1452 1454 1455
687 1 677 689 687 682
688 3 677 689 687 688
689 3 781 782 783 784
690 3 781 782 783 785
691 3 781 782 794 792
692 3 781 782 794 795
693 1 783 782 794 792
694 3 783 782 794 795
695 3 864 863 862 867
696 3 865 863 862 867
697 3 866 863 862 867
698 2 860 862 863 864
699 3 860 862 863 865
700 3 860 862 863 866
701 3 860 862 867 868
702 1 860 862 867 869
703 3 863 862 867 868
704 3 863 862 867 869
705 3 646 647 648 649
706 3 646 647 648 650
707 3 646 647 659 657
708 3 646 647 659 660
709 1 648 647 659 657
710 3 648 647 659 660
711 1 647 659 657 652
712 3 647 659 657 658
713 3 652 657 659 660
714 3 658 657 659 660
715 3 647 648 650 651
716 1 647 648 650 652
717 3 649 648 650 651
718 3 649 648 650 652
719 3 649 648 647 659
720 1 650 648 647 659
721 3 648 650 652 653
722 1 648 650 652 657
723 3 651 650 652 653
724 3 651 650 652 657
725 2 650 652 653 654
726 3 650 652 653 655
727 3 650 652 653 656
728 3 650 652 657 658
729 1 650 652 657 659
730 3 653 652 657 658
731 3 653 652 657 659
732 3 654 653 652 657
733 3 655 653 652 657
734 3 656 653 652 657
735 3 858 860 862 863
736 1 858 860 862 867
737 3 861 860 862 863
738 3 861 860 862 867
739 3 737 738 740 741
740 1 737 738 740 742
741 3 739 738 740 741
742 3 739 738 740 742
743 3 739 738 737 749
744 1 740 738 737 749
745 3 736 737 738 739
746 3 736 737 738 740
747 3 736 737 749 747
748 3 736 737 749 750
749 1 738 737 749 747
750 3 738 737 749 750
751 2 740 742 743 744
752 3 740 742 743 745
753 3 740 742 743 746
754 3 740 742 747 748
755 1 740 742 747 749
756 3 743 742 747 748
757 3 743 742 747 749
758 3 738 740 742 743
759 1 738 740 742 747
760 3 741 740 742 743
761 3 741 740 742 747
762 3 742 747 749 750
763 3 748 747 749 750
764 1 737 749 747 742
765 3 737 749 747 748
766 3 744 743 742 747
767 3 745 743 742 747
768 3 746 743 742 747
769 2 365 367 368 369
770 3 365 367 368 370
771 3 365 367 368 371
772 3 365 367 372 373
773 1 365 367 372 374
774 3 368 367 372 373
775 3 368 367 372 374
776 3 363 365 367 368
777 1 363 365 367 372
778 3 366 365 367 368
779 3 366 365 367 372
780 1 317 329 327 322
781 3 317 329 327 328
782 3 324 323 322 327
783 3 325 323 322 327
784 3 326 323 322 327
785 2 320 322 323 324
786 3 320 322 323 325
787 3 320 322 323 326
788 3 320 322 327 328
789 1 320 322 327 329
790 3 323 322 327 328
791 3 323 322 327 329
792 3 322 327 329 330
793 3 328 327 329 330
794 3 369 368 367 372
795 3 370 368 367 372
796 3 371 368 367 372
797 3 362 363 365 366
798 1 362 363 365 367
799 3 364 363 365 366
800 3 364 363 365 367
801 3 364 363 362 374
802 1 365 363 362 374
803 3 367 372 374 375
804 3 373 372 374 375
805 3 637 642 644 645
806 3 643 642 644 645
807 1 362 374 372 367
808 3 362 374 372 373
809 3 361 362 363 364
810 3 361 362 363 365
811 3 361 362 374 372
812 3 361 362 374 375
813 1 363 362 374 372
814 3 363 362 374 375
815 3 639 638 637 642
816 3 640 638 637 642
817 3 641 638 637 642
818 2 635 637 638 639
819 3 635 637 638 640
820 3 635 637 638 641
821 3 635 637 642 643
822 1 635 637 642 644
823 3 638 637 642 643
824 3 638 637 642 644
825 1 632 644 642 637
826 3 632 644 642 643
827 3 17 18 20 21
828 1 17 18 20 22
829 3 19 18 20 21
830 3 19 18 20 22
831 3 19 18 17 29
832 1 20 18 17 29
833 3 18 20 22 23
834 1 18 20 22 27
835 3 21 20 22 23
836 3 21 20 22 27
837 3 22 27 29 30
838 3 28 27 29 30
839 1 17 29 27 22
840 3 17 29 27 28
841 3 16 17 18 19
842 3 16 17 18 20
843 3 16 17 29 27
844 3 16 17 29 30
845 1 18 17 29 27
846 3 18 17 29 30
847 2 20 22 23 24
848 3 20 22 23 25
849 3 20 22 23 26
850 3 20 22 27 28
851 1 20 22 27 29
852 3 23 22 27 28
853 3 23 22 27 29
854 3 24 23 22 27
855 3 25 23 22 27
856 3 26 23 22 27
857 1 392 404 402 397
858 3 392 404 402 403
859 2 1445 1447 1448 1449
860 3 1445 1447 1448 1450
861 3 1445 1447 1448 1451
862 3 1445 1447 1452 1453
863 1 1445 1447 1452 1454
864 3 1448 1447 1452 1453
865 3 1448 1447 1452 1454
866 3 1224 1223 1222 1227
867 3 1225 1223 1222 1227
868 3 1226 1223 1222 1227
869 3 78 80 82 83
870 1 78 80 82 87
871 3 81 80 82 83
872 3 81 80 82 87
873 2 80 82 83 84
874 3 80 82 83 85
875 3 80 82 83 86
876 3 80 82 87 88
877 1 80 82 87 89
878 3 83 82 87 88
879 3 83 82 87 89
880 3 82 87 89 90
881 3 88 87 89 90
882 3 84 83 82 87
883 3 85 83 82 87
884 3 86 83 82 87
885 3 631 632 633 634
886 3 631 632 633 635
887 3 631 632 644 642
888 3 631 632 644 645
889 1 633 632 644 642
890 3 633 632 644 645
891 3 632 633 635 636
892 1 632 633 635 637
893 3 634 633 635 636
894 3 634 633 635 637
895 3 634 633 632 644
896 1 635 633 632 644
897 3 633 635 637 638
898 1 633 635 637 642
899 3 636 635 637 638
900 3 636 635 637 642
901 3 661 662 663 664
902 3 661 662 663 665
903 3 661 662 674 672
904 3 661 662 674 675
905 1 663 662 674 672
906 3 663 662 674 675
907 1 662 674 672 667
908 3 662 674 672 673
909 3 602 603 605 606
910 1 602 603 605 607
911 3 604 603 605 606
912 3 604 603 605 607
913 3 604 603 602 614
914 1 605 603 602 614
915 3 601 602 603 604
916 3 601 602 603 605
917 3 601 602 614 612
918 3 601 602 614 615
919 1 603 602 614 612
920 3 603 602 614 615
921 3 603 605 607 608
922 1 603 605 607 612
923 3 606 605 607 608
924 3 606 605 607 612
925 1 602 614 612 607
926 3 602 614 612 613
927 3 3 5 7 8
928 1 3 5 7 12
929 3 6 5 7 8
930 3 6 5 7 12
931 3 232 237 239 240
932 3 238 237 239 240
933 3 609 608 607 612
934 3 610 608 607 612
935 3 611 608 607 612
936 3 279 278 277 282
937 3 280 278 277 282
938 3 281 278 277 282
939 2 605 607 608 609
940 3 605 607 608 610
941 3 605 607 608 611
942 3 605 607 612 613
943 1 605 607 612 614
944 3 608 607 612 613
945 3 608 607 612 614
946 3 607 612 614 615
947 3 613 612 614 615
948 3 663 665 667 668
949 1 663 665 667 672
950 3 666 665 667 668
951 3 666 665 667 672
952 3 662 663 665 666
953 1 662 663 665 667
954 3 664 663 665 666
955 3 664 663 665 667
956 3 664 663 662 674
957 1 665 663 662 674
958 3 1449 1448 1447 1452
959 3 1450 1448 1447 1452
960 3 1451 1448 1447 1452
961 1 2 14 12 7
962 3 2 14 12 13
963 2 5 7 8 9
964 3 5 7 8 10
965 3 5 7 8 11
966 3 5 7 12 13
967 1 5 7 12 14
968 3 8 7 12 13
969 3 8 7 12 14
970 3 7 12 14 15
971 3 13 12 14 15
972 3 9 8 7 12
973 3 10 8 7 12
974 3 11 8 7 12
975 3 429 428 427 432
976 3 430 428 427 432
977 3 431 428 427 432
978 3 549 548 547 552
979 3 550 548 547 552
980 3 551 548 547 552
981 2 545 547 548 549
982 3 545 547 548 550
983 3 545 547 548 551
984 3 545 547 552 553
985 1 545 547 552 554
986 3 548 547 552 553
987 3 548 547 552 554
988 2 1220 1222 1223 1224
989 3 1220 1222 1223 1225
990 3 1220 1222 1223 1226
991 3 1220 1222 1227 1228
992 1 1220 1222 1227 1229
993 3 1223 1222 1227 1228
994 3 1223 1222 1227 1229
995 3 451 452 453 454
996 3 451 452 453 455
997 3 451 452 464 462
998 3 451 452 464 465
999 1 453 452 464 462
1000 3 453 452 464 465
1001 1 452 464 462 457
1002 3 452 464 462 463
1003 3 459 458 457 462
1004 3 460 458 457 462
1005 3 461 458 457 462
1006 3 452 453 455 456
1007 1 452 453 455 457
1008 3 454 453 455 456
1009 3 454 453 455 457
1010 3 454 453 452 464
1011 1 455 453 452 464
1012 3 453 455 457 458
1013 1 453 455 457 462
1014 3 456 455 457 458
1015 3 456 455 457 462
1016 2 455 457 458 459
1017 3 455 457 458 460
1018 3 455 457 458 461
1019 3 455 457 462 463
1020 1 455 457 462 464
1021 3 458 457 462 463
1022 3 458 457 462 464
1023 3 457 462 464 465
1024 3 463 462 464 465
1025 3 789 788 787 792
1026 3 790 788 787 792
1027 3 791 788 787 792
1028 2 785 787 788 789
1029 3 785 787 788 790
1030 3 785 787 788 791
1031 3 785 787 792 793
1032 1 785 787 792 794
1033 3 788 787 792 793
1034 3 788 787 792 794
1035 3 316 317 318 319
1036 3 316 317 318 320
1037 3 316 317 329 327
1038 3 316 317 329 330
1039 1 318 317 329 327
1040 3 318 317 329 330
1041 1 782 794 792 787
1042 3 782 794 792 793
1043 3 787 792 794 795
1044 3 793 792 794 795
1045 3 427 432 434 435
1046 3 433 432 434 435
1047 3 543 545 547 548
1048 1 543 545 547 552
1049 3 546 545 547 548
1050 3 546 545 547 552
1051 3 542 543 545 546
1052 1 542 543 545 547
1053 3 544 543 545 546
1054 3 544 543 545 547
1055 3 544 543 542 554
1056 1 545 543 542 554
1057 1 542 554 552 547
1058 3 542 554 552 553
1059 3 541 542 543 544
1060 3 541 542 543 545
1061 3 541 542 554 552
1062 3 541 542 554 555
1063 1 543 542 554 552
1064 3 543 542 554 555
1065 3 547 552 554 555
1066 3 553 552 554 555
1067 3 317 318 320 321
1068 1 317 318 320 322
1069 3 319 318 320 321
1070 3 319 318 320 322
1071 3 319 318 317 329
1072 1 320 318 317 329
1073 3 318 320 322 323
1074 1 318 320 322 327
1075 3 321 320 322 323
1076 3 321 320 322 327
1077 1 422 434 432 427
1078 3 422 434 432 433
1079 3 592 597 599 600
1080 3 598 597 599 600
1081 3 588 590 592 593
1082 1 588 590 592 597
1083 3 591 590 592 593
1084 3 591 590 592 597
1085 3 594 593 592 597
1086 3 595 593 592 597
1087 3 596 593 592 597
1088 2 590 592 593 594
1089 3 590 592 593 595
1090 3 590 592 593 596
1091 3 590 592 597 598
1092 1 590 592 597 599
1093 3 593 592 597 598
1094 3 593 592 597 599
1095 3 444 443 442 447
1096 3 445 443 442 447
1097 3 446 443 442 447
1098 3 438 440 442 443
1099 1 438 440 442 447
1100 3 441 440 442 443
1101 3 441 440 442 447
1102 2 440 442 443 444
1103 3 440 442 443 445
1104 3 440 442 443 446
1105 3 440 442 447 448
1106 1 440 442 447 449
1107 3 443 442 447 448
1108 3 443 442 447 449
1109 3 667 672 674 675
1110 3 673 672 674 675
1111 3 227 228 230 231
1112 1 227 228 230 232
1113 3 229 228 230 231
1114 3 229 228 230 232
1115 3 229 228 227 239
1116 1 230 228 227 239
1117 3 226 227 228 229
1118 3 226 227 228 230
1119 3 226 227 239 237
1120 3 226 227 239 240
1121 1 228 227 239 237
1122 3 228 227 239 240
1123 1 227 239 237 232
1124 3 227 239 237 238
1125 3 228 230 232 233
1126 1 228 230 232 237
1127 3 231 230 232 233
1128 3 231 230 232 237
1129 2 230 232 233 234
1130 3 230 232 233 235
1131 3 230 232 233 236
1132 3 230 232 237 238
1133 1 230 232 237 239
1134 3 233 232 237 238
1135 3 233 232 237 239
1136 3 1267 1272 1274 1275
1137 3 1273 1272 1274 1275
1138 3 669 668 667 672
1139 3 670 668 667 672
1140 3 671 668 667 672
1141 1 437 449 447 442
1142 3 437 449 447 448
1143 2 665 667 668 669
1144 3 665 667 668 670
1145 3 665 667 668 671
1146 3 665 667 672 673
1147 1 665 667 672 674
1148 3 668 667 672 673
1149 3 668 667 672 674
1150 3 442 447 449 450
1151 3 448 447 449 450
1152 3 436 437 438 439
1153 3 436 437 438 440
1154 3 436 437 449 447
1155 3 436 437 449 450
1156 1 438 437 449 447
1157 3 438 437 449 450
1158 3 437 438 440 441
1159 1 437 438 440 442
1160 3 439 438 440 441
1161 3 439 438 440 442
1162 3 439 438 437 449
1163 1 440 438 437 449
1164 1 1067 1079 1077 1072
1165 3 1067 1079 1077 1078
1166 3 1066 1067 1068 1069
1167 3 1066 1067 1068 1070
1168 3 1066 1067 1079 1077
1169 3 1066 1067 1079 1080
1170 1 1068 1067 1079 1077
1171 3 1068 1067 1079 1080
1172 3 774 773 772 777
1173 3 775 773 772 777
1174 3 776 773 772 777
1175 3 768 770 772 773
1176 1 768 770 772 777
1177 3 771 770 772 773
1178 3 771 770 772 777
1179 3 1068 1070 1072 1073
1180 1 1068 1070 1072 1077
1181 3 1071 1070 1072 1073
1182 3 1071 1070 1072 1077
1183 3 1067 1068 1070 1071
1184 1 1067 1068 1070 1072
1185 3 1069 1068 1070 1071
1186 3 1069 1068 1070 1072
1187 3 1069 1068 1067 1079
1188 1 1070 1068 1067 1079
1189 3 767 768 770 771
1190 1 767 768 770 772
1191 3 769 768 770 771
1192 3 769 768 770 772
1193 3 769 768 767 779
1194 1 770 768 767 779
1195 2 770 772 773 774
1196 3 770 772 773 775
1197 3 770 772 773 776
1198 3 770 772 777 778
1199 1 770 772 777 779
1200 3 773 772 777 778
1201 3 773 772 777 779
1202 3 772 777 779 780
1203 3 778 777 779 780
1204 3 1072 1077 1079 1080
1205 3 1078 1077 1079 1080
1206 2 1070 1072 1073 1074
1207 3 1070 1072 1073 1075
1208 3 1070 1072 1073 1076
1209 3 1070 1072 1077 1078
1210 1 1070 1072 1077 1079
1211 3 1073 1072 1077 1078
1212 3 1073 1072 1077 1079
1213 3 1074 1073 1072 1077
1214 3 1075 1073 1072 1077
1215 3 1076 1073 1072 1077
1216 3 234 233 232 237
1217 3 235 233 232 237
1218 3 236 233 232 237
1219 3 63 65 67 68
1220 1 63 65 67 72
1221 3 66 65 67 68
1222 3 66 65 67 72
1223 3 62 63 65 66
1224 1 62 63 65 67
1225 3 64 63 65 66
1226 3 64 63 65 67
1227 3 64 63 62 74
1228 1 65 63 62 74
1229 2 65 67 68 69
1230 3 65 67 68 70
1231 3 65 67 68 71
1232 3 65 67 72 73
1233 1 65 67 72 74
1234 3 68 67 72 73
1235 3 68 67 72 74
1236 3 69 68 67 72
1237 3 70 68 67 72
1238 3 71 68 67 72
1239 3 67 72 74 75
1240 3 73 72 74 75
1241 3 61 62 63 64
1242 3 61 62 63 65
1243 3 61 62 74 72
1244 3 61 62 74 75
1245 1 63 62 74 72
1246 3 63 62 74 75
1247 1 62 74 72 67
1248 3 62 74 72 73
1249 3 303 305 307 308
1250 1 303 305 307 312
1251 3 306 305 307 308
1252 3 306 305 307 312
1253 3 302 303 305 306
1254 1 302 303 305 307
1255 3 304 303 305 306
1256 3 304 303 305 307
1257 3 304 303 302 314
1258 1 305 303 302 314
1259 2 305 307 308 309
1260 3 305 307 308 310
1261 3 305 307 308 311
1262 3 305 307 312 313
1263 1 305 307 312 314
1264 3 308 307 312 313
1265 3 308 307 312 314
1266 2 425 427 428 429
1267 3 425 427 428 430
1268 3 425 427 428 431
1269 3 425 427 432 433
1270 1 425 427 432 434
1271 3 428 427 432 433
1272 3 428 427 432 434
1273 3 721 722 723 724
1274 3 721 722 723 725
1275 3 721 722 734 732
1276 3 721 722 734 735
1277 1 723 722 734 732
1278 3 723 722 734 735
1279 3 727 732 734 735
1280 3 733 732 734 735
1281 2 725 727 728 729
1282 3 725 727 728 730
1283 3 725 727 728 731
1284 3 725 727 732 733
1285 1 725 727 732 734
1286 3 728 727 732 733
1287 3 728 727 732 734
1288 3 723 725 727 728
1289 1 723 725 727 732
1290 3 726 725 727 728
1291 3 726 725 727 732
1292 1 722 734 732 727
1293 3 722 734 732 733
1294 3 729 728 727 732
1295 3 730 728 727 732
1296 3 731 728 727 732
1297 3 722 723 725 726
1298 1 722 723 725 727
1299 3 724 723 725 726
1300 3 724 723 725 727
1301 3 724 723 722 734
1302 1 725 723 722 734
1303 3 579 578 577 582
1304 3 580 578 577 582
1305 3 581 578 577 582
1306 1 992 1004 1002 997
1307 3 992 1004 1002 1003
1308 3 301 302 303 304
1309 3 301 302 303 305
1310 3 301 302 314 312
1311 3 301 302 314 315
1312 1 303 302 314 312
1313 3 303 302 314 315
1314 3 307 312 314 315
1315 3 313 312 314 315
1316 1 302 314 312 307
1317 3 302 314 312 313
1318 3 423 425 427 428
1319 1 423 425 427 432
1320 3 426 425 427 428
1321 3 426 425 427 432
1322 3 422 423 425 426
1323 1 422 423 425 427
1324 3 424 423 425 426
1325 3 424 423 425 427
1326 3 424 423 422 434
1327 1 425 423 422 434
1328 3 421 422 423 424
1329 3 421 422 423 425
1330 3 421 422 434 432
1331 3 421 422 434 435
1332 1 423 422 434 432
1333 3 423 422 434 435
1334 1 92 104 102 97
1335 3 92 104 102 103
1336 3 97 102 104 105
1337 3 103 102 104 105
1338 3 99 98 97 102
1339 3 100 98 97 102
1340 3 101 98 97 102
1341 3 91 92 93 94
1342 3 91 92 93 95
1343 3 91 92 104 102
1344 3 91 92 104 105
1345 1 93 92 104 102
1346 3 93 92 104 105
1347 2 95 97 98 99
1348 3 95 97 98 100
1349 3 95 97 98 101
1350 3 95 97 102 103
1351 1 95 97 102 104
1352 3 98 97 102 103
1353 3 98 97 102 104
1354 3 93 95 97 98
1355 1 93 95 97 102
1356 3 96 95 97 98
1357 3 96 95 97 102
1358 3 92 93 95 96
1359 1 92 93 95 97
1360 3 94 93 95 96
1361 3 94 93 95 97
1362 3 94 93 92 104
1363 1 95 93 92 104
1364 3 1389 1388 1387 1392
1365 3 1390 1388 1387 1392
1366 3 1391 1388 1387 1392
1367 3 198 200 202 203
1368 1 198 200 202 207
1369 3 201 200 202 203
1370 3 201 200 202 207
1371 2 695 697 698 699
1372 3 695 697 698 700
1373 3 695 697 698 701
1374 3 695 697 702 703
1375 1 695 697 702 704
1376 3 698 697 702 703
1377 3 698 697 702 704
1378 3 693 695 697 698
1379 1 693 695 697 702
1380 3 696 695 697 698
1381 3 696 695 697 702
1382 3 692 693 695 696
1383 1 692 693 695 697
1384 3 694 693 695 696
1385 3 694 693 695 697
1386 3 694 693 692 704
1387 1 695 693 692 704
1388 3 697 702 704 705
1389 3 703 702 704 705
1390 3 699 698 697 702
1391 3 700 698 697 702
1392 3 701 698 697 702
1393 3 616 617 618 619
1394 3 616 617 618 620
1395 3 616 617 629 627
1396 3 616 617 629 630
1397 1 618 617 629 627
1398 3 618 617 629 630
1399 1 617 629 627 622
1400 3 617 629 627 628
1401 3 122 123 125 126
1402 1 122 123 125 127
1403 3 124 123 125 126
1404 3 124 123 125 127
1405 3 124 123 122 134
1406 1 125 123 122 134
1407 1 587 599 597 592
1408 3 587 599 597 598
1409 3 249 248 247 252
1410 3 250 248 247 252
1411 3 251 248 247 252
1412 3 123 125 127 128
1413 1 123 125 127 132
1414 3 126 125 127 128
1415 3 126 125 127 132
1416 2 1265 1267 1268 1269
1417 3 1265 1267 1268 1270
1418 3 1265 1267 1268 1271
1419 3 1265 1267 1272 1273
1420 1 1265 1267 1272 1274
1421 3 1268 1267 1272 1273
1422 3 1268 1267 1272 1274
1423 3 127 132 134 135
1424 3 133 132 134 135
1425 3 376 377 378 379
1426 3 376 377 378 380
1427 3 376 377 389 387
1428 3 376 377 389 390
1429 1 378 377 389 387
1430 3 378 377 389 390
1431 3 346 347 348 349
1432 3 346 347 348 350
1433 3 346 347 359 357
1434 3 346 347 359 360
1435 1 348 347 359 357
1436 3 348 347 359 360
1437 3 347 348 350 351
1438 1 347 348 350 352
1439 3 349 348 350 351
1440 3 349 348 350 352
1441 3 349 348 347 359
1442 1 350 348 347 359
1443 1 377 389 387 382
1444 3 377 389 387 388
1445 1 347 359 357 352
1446 3 347 359 357 358
1447 3 352 357 359 360
1448 3 358 357 359 360
1449 3 348 350 352 353
1450 1 348 350 352 357
1451 3 351 350 352 353
1452 3 351 350 352 357
1453 3 624 623 622 627
1454 3 625 623 622 627
1455 3 626 623 622 627
1456 2 620 622 623 624
1457 3 620 622 623 625
1458 3 620 622 623 626
1459 3 620 622 627 628
1460 1 620 622 627 629
1461 3 623 622 627 628
1462 3 623 622 627 629
1463 3 618 620 622 623
1464 1 618 620 622 627
1465 3 621 620 622 623
1466 3 621 620 622 627
1467 3 617 618 620 621
1468 1 617 618 620 622
1469 3 619 618 620 621
1470 3 619 618 620 622
1471 3 619 618 617 629
1472 1 620 618 617 629
1473 2 125 127 128 129
1474 3 125 127 128 130
1475 3 125 127 128 131
1476 3 125 127 132 133
1477 1 125 127 132 134
1478 3 128 127 132 133
1479 3 128 127 132 134
1480 2 350 352 353 354
1481 3 350 352 353 355
1482 3 350 352 353 356
1483 3 350 352 357 358
1484 1 350 352 357 359
1485 3 353 352 357 358
1486 3 353 352 357 359
1487 3 997 1002 1004 1005
1488 3 1003 1002 1004 1005
1489 3 622 627 629 630
1490 3 628 627 629 630
1491 3 377 378 380 381
1492 1 377 378 380 382
1493 3 379 378 380 381
1494 3 379 378 380 382
1495 3 379 378 377 389
1496 1 380 378 377 389
1497 1 692 704 702 697
1498 3 692 704 702 703
1499 3 691 692 693 694
1500 3 691 692 693 695
1501 3 691 692 704 702
1502 3 691 692 704 705
1503 1 693 692 704 702
1504 3 693 692 704 705
1505 3 397 402 404 405
1506 3 403 402 404 405
1507 3 354 353 352 357
1508 3 355 353 352 357
1509 3 356 353 352 357
1510 1 752 764 762 757
1511 3 752 764 762 763
1512 3 751 752 753 754
1513 3 751 752 753 755
1514 3 751 752 764 762
1515 3 751 752 764 765
1516 1 753 752 764 762
1517 3 753 752 764 765
1518 3 752 753 755 756
1519 1 752 753 755 757
1520 3 754 753 755 756
1521 3 754 753 755 757
1522 3 754 753 752 764
1523 1 755 753 752 764
1524 3 757 762 764 765
1525 3 763 762 764 765
1526 3 753 755 757 758
1527 1 753 755 757 762
1528 3 756 755 757 758
1529 3 756 755 757 762
1530 3 759 758 757 762
1531 3 760 758 757 762
1532 3 761 758 757 762
1533 2 755 757 758 759
1534 3 755 757 758 760
1535 3 755 757 758 761
1536 3 755 757 762 763
1537 1 755 757 762 764
1538 3 758 757 762 763
1539 3 758 757 762 764
1540 3 1441 1442 1443 1444
1541 3 1441 1442 1443 1445
1542 3 1441 1442 1454 1452
1543 3 1441 1442 1454 1455
1544 1 1443 1442 1454 1452
1545 3 1443 1442 1454 1455
1546 3 797 798 800 801
1547 1 797 798 800 802
1548 3 799 798 800 801
1549 3 799 798 800 802
1550 3 799 798 797 809
1551 1 800 798 797 809
1552 1 797 809 807 802
1553 3 797 809 807 808
1554 3 796 797 798 799
1555 3 796 797 798 800
1556 3 796 797 809 807
1557 3 796 797 809 810
1558 1 798 797 809 807
1559 3 798 797 809 810
1560 3 802 807 809 810
1561 3 808 807 809 810
1562 3 798 800 802 803
1563 1 798 800 802 807
1564 3 801 800 802 803
1565 3 801 800 802 807
1566 3 804 803 802 807
1567 3 805 803 802 807
1568 3 806 803 802 807
1569 2 800 802 803 804
1570 3 800 802 803 805
1571 3 800 802 803 806
1572 3 800 802 807 808
1573 1 800 802 807 809
1574 3 803 802 807 808
1575 3 803 802 807 809
1576 3 766 767 768 769
1577 3 766 767 768 770
1578 3 766 767 779 777
1579 3 766 767 779 780
1580 1 768 767 779 777
1581 3 768 767 779 780
1582 1 767 779 777 772
1583 3 767 779 777 778
1584 3 309 308 307 312
1585 3 310 308 307 312
1586 3 311 308 307 312
1587 3 243 245 247 248
1588 1 243 245 247 252
1589 3 246 245 247 248
1590 3 246 245 247 252
1591 3 241 242 243 244
1592 3 241 242 243 245
1593 3 241 242 254 252
1594 3 241 242 254 255
1595 1 243 242 254 252
1596 3 243 242 254 255
1597 3 242 243 245 246
1598 1 242 243 245 247
1599 3 244 243 245 246
1600 3 244 243 245 247
1601 3 244 243 242 254
1602 1 245 243 242 254
1603 2 560 562 563 564
1604 3 560 562 563 565
1605 3 560 562 563 566
1606 3 560 562 567 568
1607 1 560 562 567 569
1608 3 563 562 567 568
1609 3 563 562 567 569
1610 3 556 557 558 559
1611 3 556 557 558 560
1612 3 556 557 569 567
1613 3 556 557 569 570
1614 1 558 557 569 567
1615 3 558 557 569 570
1616 1 557 569 567 562
1617 3 557 569 567 568
1618 3 564 563 562 567
1619 3 565 563 562 567
1620 3 566 563 562 567
1621 3 1263 1265 1267 1268
1622 1 1263 1265 1267 1272
1623 3 1266 1265 1267 1268
1624 3 1266 1265 1267 1272
1625 3 1387 1392 1394 1395
1626 3 1393 1392 1394 1395
1627 3 558 560 562 563
1628 1 558 560 562 567
1629 3 561 560 562 563
1630 3 561 560 562 567
1631 3 562 567 569 570
1632 3 568 567 569 570
1633 3 1383 1385 1387 1388
1634 1 1383 1385 1387 1392
1635 3 1386 1385 1387 1388
1636 3 1386 1385 1387 1392
1637 2 1385 1387 1388 1389
1638 3 1385 1387 1388 1390
1639 3 1385 1387 1388 1391
1640 3 1385 1387 1392 1393
1641 1 1385 1387 1392 1394
1642 3 1388 1387 1392 1393
1643 3 1388 1387 1392 1394
1644 3 587 588 590 591
1645 1 587 588 590 592
1646 3 589 588 590 591
1647 3 589 588 590 592
1648 3 589 588 587 599
1649 1 590 588 587 599
1650 3 1417 1422 1424 1425
1651 3 1423 1422 1424 1425
1652 3 1413 1415 1417 1418
1653 1 1413 1415 1417 1422
1654 3 1416 1415 1417 1418
1655 3 1416 1415 1417 1422
1656 2 1415 1417 1418 1419
1657 3 1415 1417 1418 1420
1658 3 1415 1417 1418 1421
1659 3 1415 1417 1422 1423
1660 1 1415 1417 1422 1424
1661 3 1418 1417 1422 1423
1662 3 1418 1417 1422 1424
1663 3 1419 1418 1417 1422
1664 3 1420 1418 1417 1422
1665 3 1421 1418 1417 1422
1666 1 1157 1169 1167 1162
1667 3 1157 1169 1167 1168
1668 3 1156 1157 1158 1159
1669 3 1156 1157 1158 1160
1670 3 1156 1157 1169 1167
1671 3 1156 1157 1169 1170
1672 1 1158 1157 1169 1167
1673 3 1158 1157 1169 1170
1674 3 1158 1160 1162 1163
1675 1 1158 1160 1162 1167
1676 3 1161 1160 1162 1163
1677 3 1161 1160 1162 1167
1678 3 1162 1167 1169 1170
1679 3 1168 1167 1169 1170
1680 3 1164 1163 1162 1167
1681 3 1165 1163 1162 1167
1682 3 1166 1163 1162 1167
1683 2 1160 1162 1163 1164
1684 3 1160 1162 1163 1165
1685 3 1160 1162 1163 1166
1686 3 1160 1162 1167 1168
1687 1 1160 1162 1167 1169
1688 3 1163 1162 1167 1168
1689 3 1163 1162 1167 1169
1690 3 1157 1158 1160 1161
1691 1 1157 1158 1160 1162
1692 3 1159 1158 1160 1161
1693 3 1159 1158 1160 1162
1694 3 1159 1158 1157 1169
1695 1 1160 1158 1157 1169
1696 1 1412 1424 1422 1417
1697 3 1412 1424 1422 1423
1698 3 1411 1412 1413 1414
1699 3 1411 1412 1413 1415
1700 3 1411 1412 1424 1422
1701 3 1411 1412 1424 1425
1702 1 1413 1412 1424 1422
1703 3 1413 1412 1424 1425
1704 3 1412 1413 1415 1416
1705 1 1412 1413 1415 1417
1706 3 1414 1413 1415 1416
1707 3 1414 1413 1415 1417
1708 3 1414 1413 1412 1424
1709 1 1415 1413 1412 1424
1710 1 1262 1274 1272 1267
1711 3 1262 1274 1272 1273
1712 3 1261 1262 1263 1264
1713 3 1261 1262 1263 1265
1714 3 1261 1262 1274 1272
1715 3 1261 1262 1274 1275
1716 1 1263 1262 1274 1272
1717 3 1263 1262 1274 1275
1718 3 1262 1263 1265 1266
1719 1 1262 1263 1265 1267
1720 3 1264 1263 1265 1266
1721 3 1264 1263 1265 1267
1722 3 1264 1263 1262 1274
1723 1 1265 1263 1262 1274
1724 3 841 842 843 844
1725 3 841 842 843 845
1726 3 841 842 854 852
1727 3 841 842 854 855
1728 1 843 842 854 852
1729 3 843 842 854 855
1730 3 963 965 967 968
1731 1 963 965 967 972
1732 3 966 965 967 968
1733 3 966 965 967 972
1734 3 967 972 974 975
1735 3 973 972 974 975
1736 3 572 573 575 576
1737 1 572 573 575 577
1738 3 574 573 575 576
1739 3 574 573 575 577
1740 3 574 573 572 584
1741 1 575 573 572 584
1742 2 575 577 578 579
1743 3 575 577 578 580
1744 3 575 577 578 581
1745 3 575 577 582 583
1746 1 575 577 582 584
1747 3 578 577 582 583
1748 3 578 577 582 584
1749 3 573 575 577 578
1750 1 573 575 577 582
1751 3 576 575 577 578
1752 3 576 575 577 582
1753 3 571 572 573 574
1754 3 571 572 573 575
1755 3 571 572 584 582
1756 3 571 572 584 585
1757 1 573 572 584 582
1758 3 573 572 584 585
1759 3 513 515 517 518
1760 1 513 515 517 522
1761 3 516 515 517 518
1762 3 516 515 517 522
1763 1 857 869 867 862
1764 3 857 869 867 868
1765 3 504 503 502 507
1766 3 505 503 502 507
1767 3 506 503 502 507
1768 1 842 854 852 847
1769 3 842 854 852 853
1770 2 1205 1207 1208 1209
1771 3 1205 1207 1208 1210
1772 3 1205 1207 1208 1211
1773 3 1205 1207 1212 1213
1774 1 1205 1207 1212 1214
1775 3 1208 1207 1212 1213
1776 3 1208 1207 1212 1214
1777 3 847 852 854 855
1778 3 853 852 854 855
1779 3 1203 1205 1207 1208
1780 1 1203 1205 1207 1212
1781 3 1206 1205 1207 1208
1782 3 1206 1205 1207 1212
1783 3 1382 1383 1385 1386
1784 1 1382 1383 1385 1387
1785 3 1384 1383 1385 1386
1786 3 1384 1383 1385 1387
1787 3 1384 1383 1382 1394
1788 1 1385 1383 1382 1394
1789 3 917 918 920 921
1790 1 917 918 920 922
1791 3 919 918 920 921
1792 3 919 918 920 922
1793 3 919 918 917 929
1794 1 920 918 917 929
1795 3 918 920 922 923
1796 1 918 920 922 927
1797 3 921 920 922 923
1798 3 921 920 922 927
1799 3 924 923 922 927
1800 3 925 923 922 927
1801 3 926 923 922 927
1802 2 920 922 923 924
1803 3 920 922 923 925
1804 3 920 922 923 926
1805 3 920 922 927 928
1806 1 920 922 927 929
1807 3 923 922 927 928
1808 3 923 922 927 929
1809 1 1382 1394 1392 1387
1810 3 1382 1394 1392 1393
1811 3 857 858 860 861
1812 1 857 858 860 862
1813 3 859 858 860 861
1814 3 859 858 860 862
1815 3 859 858 857 869
1816 1 860 858 857 869
1817 3 399 398 397 402
1818 3 400 398 397 402
1819 3 401 398 397 402
1820 3 1014 1013 1012 1017
1821 3 1015 1013 1012 1017
1822 3 1016 1013 1012 1017
1823 2 1010 1012 1013 1014
1824 3 1010 1012 1013 1015
1825 3 1010 1012 1013 1016
1826 3 1010 1012 1017 1018
1827 1 1010 1012 1017 1019
1828 3 1013 1012 1017 1018
1829 3 1013 1012 1017 1019
1830 3 1012 1017 1019 1020
1831 3 1018 1017 1019 1020
1832 1 1007 1019 1017 1012
1833 3 1007 1019 1017 1018
1834 3 1006 1007 1008 1009
1835 3 1006 1007 1008 1010
1836 3 1006 1007 1019 1017
1837 3 1006 1007 1019 1020
1838 1 1008 1007 1019 1017
1839 3 1008 1007 1019 1020
1840 3 916 917 918 919
1841 3 916 917 918 920
1842 3 916 917 929 927
1843 3 916 917 929 930
1844 1 918 917 929 927
1845 3 918 917 929 930
1846 3 1007 1008 1010 1011
1847 1 1007 1008 1010 1012
1848 3 1009 1008 1010 1011
1849 3 1009 1008 1010 1012
1850 3 1009 1008 1007 1019
1851 1 1010 1008 1007 1019
1852 3 1008 1010 1012 1013
1853 1 1008 1010 1012 1017
1854 3 1011 1010 1012 1013
1855 3 1011 1010 1012 1017
1856 3 922 927 929 930
1857 3 928 927 929 930
1858 1 917 929 927 922
1859 3 917 929 927 928
1860 1 1337 1349 1347 1342
1861 3 1337 1349 1347 1348
1862 3 1342 1347 1349 1350
1863 3 1348 1347 1349 1350
1864 2 1340 1342 1343 1344
1865 3 1340 1342 1343 1345
1866 3 1340 1342 1343 1346
1867 3 1340 1342 1347 1348
1868 1 1340 1342 1347 1349
1869 3 1343 1342 1347 1348
1870 3 1343 1342 1347 1349
1871 3 1344 1343 1342 1347
1872 3 1345 1343 1342 1347
1873 3 1346 1343 1342 1347
1874 3 1336 1337 1338 1339
1875 3 1336 1337 1338 1340
1876 3 1336 1337 1349 1347
1877 3 1336 1337 1349 1350
1878 1 1338 1337 1349 1347
1879 3 1338 1337 1349 1350
1880 3 1037 1038 1040 1041
1881 1 1037 1038 1040 1042
1882 3 1039 1038 1040 1041
1883 3 1039 1038 1040 1042
1884 3 1039 1038 1037 1049
1885 1 1040 1038 1037 1049
1886 3 1036 1037 1038 1039
1887 3 1036 1037 1038 1040
1888 3 1036 1037 1049 1047
1889 3 1036 1037 1049 1050
1890 1 1038 1037 1049 1047
1891 3 1038 1037 1049 1050
1892 3 894 893 892 897
1893 3 895 893 892 897
1894 3 896 893 892 897
1895 2 890 892 893 894
1896 3 890 892 893 895
1897 3 890 892 893 896
1898 3 890 892 897 898
1899 1 890 892 897 899
1900 3 893 892 897 898
1901 3 893 892 897 899
1902 3 879 878 877 882
1903 3 880 878 877 882
1904 3 881 878 877 882
1905 3 888 890 892 893
1906 1 888 890 892 897
1907 3 891 890 892 893
1908 3 891 890 892 897
1909 1 257 269 267 262
1910 3 257 269 267 268
1911 3 1338 1340 1342 1343
1912 1 1338 1340 1342 1347
1913 3 1341 1340 1342 1343
1914 3 1341 1340 1342 1347
1915 3 1337 1338 1340 1341
1916 1 1337 1338 1340 1342
1917 3 1339 1338 1340 1341
1918 3 1339 1338 1340 1342
1919 3 1339 1338 1337 1349
1920 1 1340 1338 1337 1349
1921 1 962 974 972 967
1922 3 962 974 972 973
1923 3 1038 1040 1042 1043
1924 1 1038 1040 1042 1047
1925 3 1041 1040 1042 1043
1926 3 1041 1040 1042 1047
1927 2 1040 1042 1043 1044
1928 3 1040 1042 1043 1045
1929 3 1040 1042 1043 1046
1930 3 1040 1042 1047 1048
1931 1 1040 1042 1047 1049
1932 3 1043 1042 1047 1048
1933 3 1043 1042 1047 1049
1934 3 1044 1043 1042 1047
1935 3 1045 1043 1042 1047
1936 3 1046 1043 1042 1047
1937 2 260 262 263 264
1938 3 260 262 263 265
1939 3 260 262 263 266
1940 3 260 262 267 268
1941 1 260 262 267 269
1942 3 263 262 267 268
1943 3 263 262 267 269
1944 3 256 257 258 259
1945 3 256 257 258 260
1946 3 256 257 269 267
1947 3 256 257 269 270
1948 1 258 257 269 267
1949 3 258 257 269 270
1950 3 257 258 260 261
1951 1 257 258 260 262
1952 3 259 258 260 261
1953 3 259 258 260 262
1954 3 259 258 257 269
1955 1 260 258 257 269
1956 3 258 260 262 263
1957 1 258 260 262 267
1958 3 261 260 262 263
1959 3 261 260 262 267
1960 3 498 500 502 503
1961 1 498 500 502 507
1962 3 501 500 502 503
1963 3 501 500 502 507
1964 3 497 498 500 501
1965 1 497 498 500 502
1966 3 499 498 500 501
1967 3 499 498 500 502
1968 3 499 498 497 509
1969 1 500 498 497 509
1970 3 496 497 498 499
1971 3 496 497 498 500
1972 3 496 497 509 507
1973 3 496 497 509 510
1974 1 498 497 509 507
1975 3 498 497 509 510
1976 2 500 502 503 504
1977 3 500 502 503 505
1978 3 500 502 503 506
1979 3 500 502 507 508
1980 1 500 502 507 509
1981 3 503 502 507 508
1982 3 503 502 507 509
1983 1 497 509 507 502
1984 3 497 509 507 508
1985 2 845 847 848 849
1986 3 845 847 848 850
1987 3 845 847 848 851
1988 3 845 847 852 853
1989 1 845 847 852 854
1990 3 848 847 852 853
1991 3 848 847 852 854
1992 3 892 897 899 900
1993 3 898 897 899 900
1994 1 1037 1049 1047 1042
1995 3 1037 1049 1047 1048
1996 1 887 899 897 892
1997 3 887 899 897 898
1998 3 886 887 888 889
1999 3 886 887 888 890
2000 3 886 887 899 897
2001 3 886 887 899 900
2002 1 888 887 899 897
2003 3 888 887 899 900
2004 3 887 888 890 891
2005 1 887 888 890 892
2006 3 889 888 890 891
2007 3 889 888 890 892
2008 3 889 888 887 899
2009 1 890 888 887 899
2010 3 1042 1047 1049 1050
2011 3 1048 1047 1049 1050
2012 3 1297 1302 1304 1305
2013 3 1303 1302 1304 1305
2014 2 1295 1297 1298 1299
2015 3 1295 1297 1298 1300
2016 3 1295 1297 1298 1301
2017 3 1295 1297 1302 1303
2018 1 1295 1297 1302 1304
2019 3 1298 1297 1302 1303
2020 3 1298 1297 1302 1304
2021 3 1299 1298 1297 1302
2022 3 1300 1298 1297 1302
2023 3 1301 1298 1297 1302
2024 1 1292 1304 1302 1297
2025 3 1292 1304 1302 1303
2026 3 1434 1433 1432 1437
2027 3 1435 1433 1432 1437
2028 3 1436 1433 1432 1437
2029 3 1426 1427 1428 1429
2030 3 1426 1427 1428 1430
2031 3 1426 1427 1439 1437
2032 3 1426 1427 1439 1440
2033 1 1428 1427 1439 1437
2034 3 1428 1427 1439 1440
2035 1 1427 1439 1437 1432
2036 3 1427 1439 1437 1438
2037 3 1432 1437 1439 1440
2038 3 1438 1437 1439 1440
2039 2 1430 1432 1433 1434
2040 3 1430 1432 1433 1435
2041 3 1430 1432 1433 1436
2042 3 1430 1432 1437 1438
2043 1 1430 1432 1437 1439
2044 3 1433 1432 1437 1438
2045 3 1433 1432 1437 1439
2046 3 1479 1478 1477 1482
2047 3 1480 1478 1477 1482
2048 3 1481 1478 1477 1482
2049 2 1475 1477 1478 1479
2050 3 1475 1477 1478 1480
2051 3 1475 1477 1478 1481
2052 3 1475 1477 1482 1483
2053 1 1475 1477 1482 1484
2054 3 1478 1477 1482 1483
2055 3 1478 1477 1482 1484
2056 3 1427 1428 1430 1431
2057 1 1427 1428 1430 1432
2058 3 1429 1428 1430 1431
2059 3 1429 1428 1430 1432
2060 3 1429 1428 1427 1439
2061 1 1430 1428 1427 1439
2062 3 1428 1430 1432 1433
2063 1 1428 1430 1432 1437
2064 3 1431 1430 1432 1433
2065 3 1431 1430 1432 1437
2066 1 1472 1484 1482 1477
2067 3 1472 1484 1482 1483
2068 3 1477 1482 1484 1485
2069 3 1483 1482 1484 1485
2070 3 1209 1208 1207 1212
2071 3 1210 1208 1207 1212
2072 3 1211 1208 1207 1212
2073 3 856 857 858 859
2074 3 856 857 858 860
2075 3 856 857 869 867
2076 3 856 857 869 870
2077 1 858 857 869 867
2078 3 858 857 869 870
2079 3 502 507 509 510
2080 3 508 507 509 510
2081 3 1442 1443 1445 1446
2082 1 1442 1443 1445 1447
2083 3 1444 1443 1445 1446
2084 3 1444 1443 1445 1447
2085 3 1444 1443 1442 1454
2086 1 1445 1443 1442 1454
2087 3 1443 1445 1447 1448
2088 1 1443 1445 1447 1452
2089 3 1446 1445 1447 1448
2090 3 1446 1445 1447 1452
2091 3 1293 1295 1297 1298
2092 1 1293 1295 1297 1302
2093 3 1296 1295 1297 1298
2094 3 1296 1295 1297 1302
2095 3 1473 1475 1477 1478
2096 1 1473 1475 1477 1482
2097 3 1476 1475 1477 1478
2098 3 1476 1475 1477 1482
2099 3 1471 1472 1473 1474
2100 3 1471 1472 1473 1475
2101 3 1471 1472 1484 1482
2102 3 1471 1472 1484 1485
2103 1 1473 1472 1484 1482
2104 3 1473 1472 1484 1485
2105 3 1472 1473 1475 1476
2106 1 1472 1473 1475 1477
2107 3 1474 1473 1475 1476
2108 3 1474 1473 1475 1477
2109 3 1474 1473 1472 1484
2110 1 1475 1473 1472 1484
2111 3 1202 1203 1205 1206
2112 1 1202 1203 1205 1207
2113 3 1204 1203 1205 1206
2114 3 1204 1203 1205 1207
2115 3 1204 1203 1202 1214
2116 1 1205 1203 1202 1214
2117 3 1201 1202 1203 1204
2118 3 1201 1202 1203 1205
2119 3 1201 1202 1214 1212
2120 3 1201 1202 1214 1215
2121 1 1203 1202 1214 1212
2122 3 1203 1202 1214 1215
2123 1 1202 1214 1212 1207
2124 3 1202 1214 1212 1213
2125 3 1207 1212 1214 1215
2126 3 1213 1212 1214 1215
2127 3 217 222 224 225
2128 3 223 222 224 225
2129 3 1051 1052 1053 1054
2130 3 1051 1052 1053 1055
2131 3 1051 1052 1064 1062
2132 3 1051 1052 1064 1065
2133 1 1053 1052 1064 1062
2134 3 1053 1052 1064 1065
2135 3 1052 1053 1055 1056
2136 1 1052 1053 1055 1057
2137 3 1054 1053 1055 1056
2138 3 1054 1053 1055 1057
2139 3 1054 1053 1052 1064
2140 1 1055 1053 1052 1064
2141 3 219 218 217 222
2142 3 220 218 217 222
2143 3 221 218 217 222
2144 3 1057 1062 1064 1065
2145 3 1063 1062 1064 1065
2146 1 1052 1064 1062 1057
2147 3 1052 1064 1062 1063
2148 2 1055 1057 1058 1059
2149 3 1055 1057 1058 1060
2150 3 1055 1057 1058 1061
2151 3 1055 1057 1062 1063
2152 1 1055 1057 1062 1064
2153 3 1058 1057 1062 1063
2154 3 1058 1057 1062 1064
2155 2 215 217 218 219
2156 3 215 217 218 220
2157 3 215 217 218 221
2158 3 215 217 222 223
2159 1 215 217 222 224
2160 3 218 217 222 223
2161 3 218 217 222 224
2162 3 862 867 869 870
2163 3 868 867 869 870
2164 3 129 128 127 132
2165 3 130 128 127 132
2166 3 131 128 127 132
2167 3 1053 1055 1057 1058
2168 1 1053 1055 1057 1062
2169 3 1056 1055 1057 1058
2170 3 1056 1055 1057 1062
2171 3 1059 1058 1057 1062
2172 3 1060 1058 1057 1062
2173 3 1061 1058 1057 1062
2174 2 1130 1132 1133 1134
2175 3 1130 1132 1133 1135
2176 3 1130 1132 1133 1136
2177 3 1130 1132 1137 1138
2178 1 1130 1132 1137 1139
2179 3 1133 1132 1137 1138
2180 3 1133 1132 1137 1139
2181 3 1111 1112 1113 1114
2182 3 1111 1112 1113 1115
2183 3 1111 1112 1124 1122
2184 3 1111 1112 1124 1125
2185 1 1113 1112 1124 1122
2186 3 1113 1112 1124 1125
2187 3 1132 1137 1139 1140
2188 3 1138 1137 1139 1140
2189 1 1127 1139 1137 1132
2190 3 1127 1139 1137 1138
2191 1 1112 1124 1122 1117
2192 3 1112 1124 1122 1123
2193 3 1126 1127 1128 1129
2194 3 1126 1127 1128 1130
2195 3 1126 1127 1139 1137
2196 3 1126 1127 1139 1140
2197 1 1128 1127 1139 1137
2198 3 1128 1127 1139 1140
2199 3 1127 1128 1130 1131
2200 1 1127 1128 1130 1132
2201 3 1129 1128 1130 1131
2202 3 1129 1128 1130 1132
2203 3 1129 1128 1127 1139
2204 1 1130 1128 1127 1139
2205 3 1112 1113 1115 1116
2206 1 1112 1113 1115 1117
2207 3 1114 1113 1115 1116
2208 3 1114 1113 1115 1117
2209 3 1114 1113 1112 1124
2210 1 1115 1113 1112 1124
2211 2 1280 1282 1283 1284
2212 3 1280 1282 1283 1285
2213 3 1280 1282 1283 1286
2214 3 1280 1282 1287 1288
2215 1 1280 1282 1287 1289
2216 3 1283 1282 1287 1288
2217 3 1283 1282 1287 1289
2218 3 1277 1278 1280 1281
2219 1 1277 1278 1280 1282
2220 3 1279 1278 1280 1281
2221 3 1279 1278 1280 1282
2222 3 1279 1278 1277 1289
2223 1 1280 1278 1277 1289
2224 3 1278 1280 1282 1283
2225 1 1278 1280 1282 1287
2226 3 1281 1280 1282 1283
2227 3 1281 1280 1282 1287
2228 3 1284 1283 1282 1287
2229 3 1285 1283 1282 1287
2230 3 1286 1283 1282 1287
2231 3 1128 1130 1132 1133
2232 1 1128 1130 1132 1137
2233 3 1131 1130 1132 1133
2234 3 1131 1130 1132 1137
2235 3 1134 1133 1132 1137
2236 3 1135 1133 1132 1137
2237 3 1136 1133 1132 1137
2238 3 1276 1277 1278 1279
2239 3 1276 1277 1278 1280
2240 3 1276 1277 1289 1287
2241 3 1276 1277 1289 1290
2242 1 1278 1277 1289 1287
2243 3 1278 1277 1289 1290
2244 1 1277 1289 1287 1282
2245 3 1277 1289 1287 1288
2246 3 1282 1287 1289 1290
2247 3 1288 1287 1289 1290
2248 1 212 224 222 217
2249 3 212 224 222 223
2250 3 213 215 217 218
2251 1 213 215 217 222
2252 3 216 215 217 218
2253 3 216 215 217 222
2254 3 211 212 213 214
2255 3 211 212 213 215
2256 3 211 212 224 222
2257 3 211 212 224 225
2258 1 213 212 224 222
2259 3 213 212 224 225
2260 1 1217 1229 1227 1222
2261 3 1217 1229 1227 1228
2262 3 212 213 215 216
2263 1 212 213 215 217
2264 3 214 213 215 216
2265 3 214 213 215 217
2266 3 214 213 212 224
2267 1 215 213 212 224
2268 3 1216 1217 1218 1219
2269 3 1216 1217 1218 1220
2270 3 1216 1217 1229 1227
2271 3 1216 1217 1229 1230
2272 1 1218 1217 1229 1227
2273 3 1218 1217 1229 1230
2274 3 1117 1122 1124 1125
2275 3 1123 1122 1124 1125
2276 2 1115 1117 1118 1119
2277 3 1115 1117 1118 1120
2278 3 1115 1117 1118 1121
2279 3 1115 1117 1122 1123
2280 1 1115 1117 1122 1124
2281 3 1118 1117 1122 1123
2282 3 1118 1117 1122 1124
2283 3 1119 1118 1117 1122
2284 3 1120 1118 1117 1122
2285 3 1121 1118 1117 1122
2286 3 1113 1115 1117 1118
2287 1 1113 1115 1117 1122
2288 3 1116 1115 1117 1118
2289 3 1116 1115 1117 1122
2290 3 1366 1367 1368 1369
2291 3 1366 1367 1368 1370
2292 3 1366 1367 1379 1377
2293 3 1366 1367 1379 1380
2294 1 1368 1367 1379 1377
2295 3 1368 1367 1379 1380
2296 3 826 827 828 829
2297 3 826 827 828 830
2298 3 826 827 839 837
2299 3 826 827 839 840
2300 1 828 827 839 837
2301 3 828 827 839 840
2302 3 873 875 877 878
2303 1 873 875 877 882
2304 3 876 875 877 878
2305 3 876 875 877 882
2306 2 875 877 878 879
2307 3 875 877 878 880
2308 3 875 877 878 881
2309 3 875 877 882 883
2310 1 875 877 882 884
2311 3 878 877 882 883
2312 3 878 877 882 884
2313 3 877 882 884 885
2314 3 883 882 884 885
2315 3 1247 1248 1250 1251
2316 1 1247 1248 1250 1252
2317 3 1249 1248 1250 1251
2318 3 1249 1248 1250 1252
2319 3 1249 1248 1247 1259
2320 1 1250 1248 1247 1259
2321 3 1248 1250 1252 1253
2322 1 1248 1250 1252 1257
2323 3 1251 1250 1252 1253
2324 3 1251 1250 1252 1257
2325 3 1254 1253 1252 1257
2326 3 1255 1253 1252 1257
2327 3 1256 1253 1252 1257
2328 1 872 884 882 877
2329 3 872 884 882 883
2330 2 1250 1252 1253 1254
2331 3 1250 1252 1253 1255
2332 3 1250 1252 1253 1256
2333 3 1250 1252 1257 1258
2334 1 1250 1252 1257 1259
2335 3 1253 1252 1257 1258
2336 3 1253 1252 1257 1259
2337 3 871 872 873 874
2338 3 871 872 873 875
2339 3 871 872 884 882
2340 3 871 872 884 885
2341 1 873 872 884 882
2342 3 873 872 884 885
2343 3 954 953 952 957
2344 3 955 953 952 957
2345 3 956 953 952 957
2346 3 1381 1382 1383 1384
2347 3 1381 1382 1383 1385
2348 3 1381 1382 1394 1392
2349 3 1381 1382 1394 1395
2350 1 1383 1382 1394 1392
2351 3 1383 1382 1394 1395
2352 3 159 158 157 162
2353 3 160 158 157 162
2354 3 161 158 157 162
2355 3 828 830 832 833
2356 1 828 830 832 837
2357 3 831 830 832 833
2358 3 831 830 832 837
2359 3 827 828 830 831
2360 1 827 828 830 832
2361 3 829 828 830 831
2362 3 829 828 830 832
2363 3 829 828 827 839
2364 1 830 828 827 839
2365 3 843 845 847 848
2366 1 843 845 847 852
2367 3 846 845 847 848
2368 3 846 845 847 852
2369 3 999 998 997 1002
2370 3 1000 998 997 1002
2371 3 1001 998 997 1002
2372 2 995 997 998 999
2373 3 995 997 998 1000
2374 3 995 997 998 1001
2375 3 995 997 1002 1003
2376 1 995 997 1002 1004
2377 3 998 997 1002 1003
2378 3 998 997 1002 1004
2379 3 1486 1487 1488 1489
2380 3 1486 1487 1488 1490
2381 3 1486 1487 1499 1497
2382 3 1486 1487 1499 1500
2383 1 1488 1487 1499 1497
2384 3 1488 1487 1499 1500
2385 3 872 873 875 876
2386 1 872 873 875 877
2387 3 874 873 875 876
2388 3 874 873 875 877
2389 3 874 873 872 884
2390 1 875 873 872 884
2391 3 1487 1488 1490 1491
2392 1 1487 1488 1490 1492
2393 3 1489 1488 1490 1491
2394 3 1489 1488 1490 1492
2395 3 1489 1488 1487 1499
2396 1 1490 1488 1487 1499
2397 3 1488 1490 1492 1493
2398 1 1488 1490 1492 1497
2399 3 1491 1490 1492 1493
2400 3 1491 1490 1492 1497
2401 3 1492 1497 1499 1500
2402 3 1498 1497 1499 1500
2403 1 1487 1499 1497 1492
2404 3 1487 1499 1497 1498
2405 3 1494 1493 1492 1497
2406 3 1495 1493 1492 1497
2407 3 1496 1493 1492 1497
2408 2 1490 1492 1493 1494
2409 3 1490 1492 1493 1495
2410 3 1490 1492 1493 1496
2411 3 1490 1492 1497 1498
2412 1 1490 1492 1497 1499
2413 3 1493 1492 1497 1498
2414 3 1493 1492 1497 1499
2415 3 1291 1292 1293 1294
2416 3 1291 1292 1293 1295
2417 3 1291 1292 1304 1302
2418 3 1291 1292 1304 1305
2419 1 1293 1292 1304 1302
2420 3 1293 1292 1304 1305
2421 3 947 948 950 951
2422 1 947 948 950 952
2423 3 949 948 950 951
2424 3 949 948 950 952
2425 3 949 948 947 959
2426 1 950 948 947 959
2427 3 952 957 959 960
2428 3 958 957 959 960
2429 1 947 959 957 952
2430 3 947 959 957 958
2431 3 946 947 948 949
2432 3 946 947 948 950
2433 3 946 947 959 957
2434 3 946 947 959 960
2435 1 948 947 959 957
2436 3 948 947 959 960
2437 3 948 950 952 953
2438 1 948 950 952 957
2439 3 951 950 952 953
2440 3 951 950 952 957
2441 2 950 952 953 954
2442 3 950 952 953 955
2443 3 950 952 953 956
2444 3 950 952 957 958
2445 1 950 952 957 959
2446 3 953 952 957 958
2447 3 953 952 957 959
2448 3 262 267 269 270
2449 3 268 267 269 270
2450 3 577 582 584 585
2451 3 583 582 584 585
2452 3 1292 1293 1295 1296
2453 1 1292 1293 1295 1297
2454 3 1294 1293 1295 1296
2455 3 1294 1293 1295 1297
2456 3 1294 1293 1292 1304
2457 1 1295 1293 1292 1304
2458 3 511 512 513 514
2459 3 511 512 513 515
2460 3 511 512 524 522
2461 3 511 512 524 525
2462 1 513 512 524 522
2463 3 513 512 524 525
2464 1 512 524 522 517
2465 3 512 524 522 523
2466 3 1172 1173 1175 1176
2467 1 1172 1173 1175 1177
2468 3 1174 1173 1175 1176
2469 3 1174 1173 1175 1177
2470 3 1174 1173 1172 1184
2471 1 1175 1173 1172 1184
2472 3 1171 1172 1173 1174
2473 3 1171 1172 1173 1175
2474 3 1171 1172 1184 1182
2475 3 1171 1172 1184 1185
2476 1 1173 1172 1184 1182
2477 3 1173 1172 1184 1185
2478 1 1172 1184 1182 1177
2479 3 1172 1184 1182 1183
2480 2 1325 1327 1328 1329
2481 3 1325 1327 1328 1330
2482 3 1325 1327 1328 1331
2483 3 1325 1327 1332 1333
2484 1 1325 1327 1332 1334
2485 3 1328 1327 1332 1333
2486 3 1328 1327 1332 1334
2487 3 1329 1328 1327 1332
2488 3 1330 1328 1327 1332
2489 3 1331 1328 1327 1332
2490 3 1327 1332 1334 1335
2491 3 1333 1332 1334 1335
2492 1 1322 1334 1332 1327
2493 3 1322 1334 1332 1333
2494 3 1323 1325 1327 1328
2495 1 1323 1325 1327 1332
2496 3 1326 1325 1327 1328
2497 3 1326 1325 1327 1332
2498 3 1177 1182 1184 1185
2499 3 1183 1182 1184 1185
2500 3 1173 1175 1177 1178
2501 1 1173 1175 1177 1182
2502 3 1176 1175 1177 1178
2503 3 1176 1175 1177 1182
2504 2 1175 1177 1178 1179
2505 3 1175 1177 1178 1180
2506 3 1175 1177 1178 1181
2507 3 1175 1177 1182 1183
2508 1 1175 1177 1182 1184
2509 3 1178 1177 1182 1183
2510 3 1178 1177 1182 1184
2511 3 1239 1238 1237 1242
2512 3 1240 1238 1237 1242
2513 3 1241 1238 1237 1242
2514 3 1232 1233 1235 1236
2515 1 1232 1233 1235 1237
2516 3 1234 1233 1235 1236
2517 3 1234 1233 1235 1237
2518 3 1234 1233 1232 1244
2519 1 1235 1233 1232 1244
2520 3 1231 1232 1233 1234
2521 3 1231 1232 1233 1235
2522 3 1231 1232 1244 1242
2523 3 1231 1232 1244 1245
2524 1 1233 1232 1244 1242
2525 3 1233 1232 1244 1245
2526 3 1233 1235 1237 1238
2527 1 1233 1235 1237 1242
2528 3 1236 1235 1237 1238
2529 3 1236 1235 1237 1242
2530 1 1232 1244 1242 1237
2531 3 1232 1244 1242 1243
2532 3 1237 1242 1244 1245
2533 3 1243 1242 1244 1245
2534 2 1235 1237 1238 1239
2535 3 1235 1237 1238 1240
2536 3 1235 1237 1238 1241
2537 3 1235 1237 1242 1243
2538 1 1235 1237 1242 1244
2539 3 1238 1237 1242 1243
2540 3 1238 1237 1242 1244
2541 3 1306 1307 1308 1309
2542 3 1306 1307 1308 1310
2543 3 1306 1307 1319 1317
2544 3 1306 1307 1319 1320
2545 1 1308 1307 1319 1317
2546 3 1308 1307 1319 1320
2547 3 512 513 515 516
2548 1 512 513 515 517
2549 3 514 513 515 516
2550 3 514 513 515 517
2551 3 514 513 512 524
2552 1 515 513 512 524
2553 3 1179 1178 1177 1182
2554 3 1180 1178 1177 1182
2555 3 1181 1178 1177 1182
2556 3 902 903 905 906
2557 1 902 903 905 907
2558 3 904 903 905 906
2559 3 904 903 905 907
2560 3 904 903 902 914
2561 1 905 903 902 914
2562 3 907 912 914 915
2563 3 913 912 914 915
2564 2 905 907 908 909
2565 3 905 907 908 910
2566 3 905 907 908 911
2567 3 905 907 912 913
2568 1 905 907 912 914
2569 3 908 907 912 913
2570 3 908 907 912 914
2571 3 903 905 907 908
2572 1 903 905 907 912
2573 3 906 905 907 908
2574 3 906 905 907 912
2575 3 909 908 907 912
2576 3 910 908 907 912
2577 3 911 908 907 912
2578 1 902 914 912 907
2579 3 902 914 912 913
2580 3 901 902 903 904
2581 3 901 902 903 905
2582 3 901 902 914 912
2583 3 901 902 914 915
2584 1 903 902 914 912
2585 3 903 902 914 915
2586 1 1082 1094 1092 1087
2587 3 1082 1094 1092 1093
2588 3 1087 1092 1094 1095
2589 3 1093 1092 1094 1095
2590 1 827 839 837 832
2591 3 827 839 837 838
2592 1 1142 1154 1152 1147
2593 3 1142 1154 1152 1153
2594 3 1141 1142 1143 1144
2595 3 1141 1142 1143 1145
2596 3 1141 1142 1154 1152
2597 3 1141 1142 1154 1155
2598 1 1143 1142 1154 1152
2599 3 1143 1142 1154 1155
2600 2 1145 1147 1148 1149
2601 3 1145 1147 1148 1150
2602 3 1145 1147 1148 1151
2603 3 1145 1147 1152 1153
2604 1 1145 1147 1152 1154
2605 3 1148 1147 1152 1153
2606 3 1148 1147 1152 1154
2607 3 1142 1143 1145 1146
2608 1 1142 1143 1145 1147
2609 3 1144 1143 1145 1146
2610 3 1144 1143 1145 1147
2611 3 1144 1143 1142 1154
2612 1 1145 1143 1142 1154
2613 3 1143 1145 1147 1148
2614 1 1143 1145 1147 1152
2615 3 1146 1145 1147 1148
2616 3 1146 1145 1147 1152
2617 3 1147 1152 1154 1155
2618 3 1153 1152 1154 1155
2619 3 1149 1148 1147 1152
2620 3 1150 1148 1147 1152
2621 3 1151 1148 1147 1152
2622 3 1082 1083 1085 1086
2623 1 1082 1083 1085 1087
2624 3 1084 1083 1085 1086
2625 3 1084 1083 1085 1087
2626 3 1084 1083 1082 1094
2627 1 1085 1083 1082 1094
2628 3 1081 1082 1083 1084
2629 3 1081 1082 1083 1085
2630 3 1081 1082 1094 1092
2631 3 1081 1082 1094 1095
2632 1 1083 1082 1094 1092
2633 3 1083 1082 1094 1095
2634 3 1083 1085 1087 1088
2635 1 1083 1085 1087 1092
2636 3 1086 1085 1087 1088
2637 3 1086 1085 1087 1092
2638 2 1085 1087 1088 1089
2639 3 1085 1087 1088 1090
2640 3 1085 1087 1088 1091
2641 3 1085 1087 1092 1093
2642 1 1085 1087 1092 1094
2643 3 1088 1087 1092 1093
2644 3 1088 1087 1092 1094
2645 3 1089 1088 1087 1092
2646 3 1090 1088 1087 1092
2647 3 1091 1088 1087 1092
2648 1 1457 1469 1467 1462
2649 3 1457 1469 1467 1468
2650 3 1456 1457 1458 1459
2651 3 1456 1457 1458 1460
2652 3 1456 1457 1469 1467
2653 3 1456 1457 1469 1470
2654 1 1458 1457 1469 1467
2655 3 1458 1457 1469 1470
2656 3 1457 1458 1460 1461
2657 1 1457 1458 1460 1462
2658 3 1459 1458 1460 1461
2659 3 1459 1458 1460 1462
2660 3 1459 1458 1457 1469
2661 1 1460 1458 1457 1469
2662 3 1462 1467 1469 1470
2663 3 1468 1467 1469 1470
2664 2 1460 1462 1463 1464
2665 3 1460 1462 1463 1465
2666 3 1460 1462 1463 1466
2667 3 1460 1462 1467 1468
2668 1 1460 1462 1467 1469
2669 3 1463 1462 1467 1468
2670 3 1463 1462 1467 1469
2671 3 1458 1460 1462 1463
2672 1 1458 1460 1462 1467
2673 3 1461 1460 1462 1463
2674 3 1461 1460 1462 1467
2675 1 1247 1259 1257 1252
2676 3 1247 1259 1257 1258
2677 3 1252 1257 1259 1260
2678 3 1258 1257 1259 1260
2679 3 1246 1247 1248 1249
2680 3 1246 1247 1248 1250
2681 3 1246 1247 1259 1257
2682 3 1246 1247 1259 1260
2683 1 1248 1247 1259 1257
2684 3 1248 1247 1259 1260
2685 3 961 962 963 964
2686 3 961 962 963 965
2687 3 961 962 974 972
2688 3 961 962 974 975
2689 1 963 962 974 972
2690 3 963 962 974 975
2691 3 991 992 993 994
2692 3 991 992 993 995
2693 3 991 992 1004 1002
2694 3 991 992 1004 1005
2695 1 993 992 1004 1002
2696 3 993 992 1004 1005
2697 3 832 837 839 840
2698 3 838 837 839 840
2699 2 830 832 833 834
2700 3 830 832 833 835
2701 3 830 832 833 836
2702 3 830 832 837 838
2703 1 830 832 837 839
2704 3 833 832 837 838
2705 3 833 832 837 839
2706 3 993 995 997 998
2707 1 993 995 997 1002
2708 3 996 995 997 998
2709 3 996 995 997 1002
2710 3 992 993 995 996
2711 1 992 993 995 997
2712 3 994 993 995 996
2713 3 994 993 995 997
2714 3 994 993 992 1004
2715 1 995 993 992 1004
2716 3 834 833 832 837
2717 3 835 833 832 837
2718 3 836 833 832 837
2719 3 1096 1097 1098 1099
2720 3 1096 1097 1098 1100
2721 3 1096 1097 1109 1107
2722 3 1096 1097 1109 1110
2723 1 1098 1097 1109 1107
2724 3 1098 1097 1109 1110
2725 1 1097 1109 1107 1102
2726 3 1097 1109 1107 1108
2727 3 1098 1100 1102 1103
2728 1 1098 1100 1102 1107
2729 3 1101 1100 1102 1103
2730 3 1101 1100 1102 1107
2731 3 1097 1098 1100 1101
2732 1 1097 1098 1100 1102
2733 3 1099 1098 1100 1101
2734 3 1099 1098 1100 1102
2735 3 1099 1098 1097 1109
2736 1 1100 1098 1097 1109
2737 2 1100 1102 1103 1104
2738 3 1100 1102 1103 1105
2739 3 1100 1102 1103 1106
2740 3 1100 1102 1107 1108
2741 1 1100 1102 1107 1109
2742 3 1103 1102 1107 1108
2743 3 1103 1102 1107 1109
2744 3 1104 1103 1102 1107
2745 3 1105 1103 1102 1107
2746 3 1106 1103 1102 1107
2747 3 1102 1107 1109 1110
2748 3 1108 1107 1109 1110
2749 3 1217 1218 1220 1221
2750 1 1217 1218 1220 1222
2751 3 1219 1218 1220 1221
2752 3 1219 1218 1220 1222
2753 3 1219 1218 1217 1229
2754 1 1220 1218 1217 1229
2755 3 517 522 524 525
2756 3 523 522 524 525
2757 2 515 517 518 519
2758 3 515 517 518 520
2759 3 515 517 518 521
2760 3 515 517 522 523
2761 1 515 517 522 524
2762 3 518 517 522 523
2763 3 518 517 522 524
2764 3 519 518 517 522
2765 3 520 518 517 522
2766 3 521 518 517 522
2767 3 1307 1308 1310 1311
2768 1 1307 1308 1310 1312
2769 3 1309 1308 1310 1311
2770 3 1309 1308 1310 1312
2771 3 1309 1308 1307 1319
2772 1 1310 1308 1307 1319
2773 3 1308 1310 1312 1313
2774 1 1308 1310 1312 1317
2775 3 1311 1310 1312 1313
2776 3 1311 1310 1312 1317
2777 3 1312 1317 1319 1320
2778 3 1318 1317 1319 1320
2779 2 1310 1312 1313 1314
2780 3 1310 1312 1313 1315
2781 3 1310 1312 1313 1316
2782 3 1310 1312 1317 1318
2783 1 1310 1312 1317 1319
2784 3 1313 1312 1317 1318
2785 3 1313 1312 1317 1319
2786 3 1314 1313 1312 1317
2787 3 1315 1313 1312 1317
2788 3 1316 1313 1312 1317
2789 1 1307 1319 1317 1312
2790 3 1307 1319 1317 1318
2791 3 382 387 389 390
2792 3 388 387 389 390
2793 3 378 380 382 383
2794 1 378 380 382 387
2795 3 381 380 382 383
2796 3 381 380 382 387
2797 2 380 382 383 384
2798 3 380 382 383 385
2799 3 380 382 383 386
2800 3 380 382 387 388
2801 1 380 382 387 389
2802 3 383 382 387 388
2803 3 383 382 387 389
2804 3 384 383 382 387
2805 3 385 383 382 387
2806 3 386 383 382 387
2807 3 1187 1188 1190 1191
2808 1 1187 1188 1190 1192
2809 3 1189 1188 1190 1191
2810 3 1189 1188 1190 1192
2811 3 1189 1188 1187 1199
2812 1 1190 1188 1187 1199
2813 3 1322 1323 1325 1326
2814 1 1322 1323 1325 1327
2815 3 1324 1323 1325 1326
2816 3 1324 1323 1325 1327
2817 3 1324 1323 1322 1334
2818 1 1325 1323 1322 1334
2819 3 1321 1322 1323 1324
2820 3 1321 1322 1323 1325
2821 3 1321 1322 1334 1332
2822 3 1321 1322 1334 1335
2823 1 1323 1322 1334 1332
2824 3 1323 1322 1334 1335
2825 3 1188 1190 1192 1193
2826 1 1188 1190 1192 1197
2827 3 1191 1190 1192 1193
2828 3 1191 1190 1192 1197
2829 2 1190 1192 1193 1194
2830 3 1190 1192 1193 1195
2831 3 1190 1192 1193 1196
2832 3 1190 1192 1197 1198
2833 1 1190 1192 1197 1199
2834 3 1193 1192 1197 1198
2835 3 1193 1192 1197 1199
2836 3 1194 1193 1192 1197
2837 3 1195 1193 1192 1197
2838 3 1196 1193 1192 1197
2839 1 1187 1199 1197 1192
2840 3 1187 1199 1197 1198
2841 3 1192 1197 1199 1200
2842 3 1198 1197 1199 1200
2843 3 1186 1187 1188 1189
2844 3 1186 1187 1188 1190
2845 3 1186 1187 1199 1197
2846 3 1186 1187 1199 1200
2847 1 1188 1187 1199 1197
2848 3 1188 1187 1199 1200
2849 3 1353 1355 1357 1358
2850 1 1353 1355 1357 1362
2851 3 1356 1355 1357 1358
2852 3 1356 1355 1357 1362
2853 3 1359 1358 1357 1362
2854 3 1360 1358 1357 1362
2855 3 1361 1358 1357 1362
2856 3 962 963 965 966
2857 1 962 963 965 967
2858 3 964 963 965 966
2859 3 964 963 965 967
2860 3 964 963 962 974
2861 1 965 963 962 974
2862 3 842 843 845 846
2863 1 842 843 845 847
2864 3 844 843 845 846
2865 3 844 843 845 847
2866 3 844 843 842 854
2867 1 845 843 842 854
2868 3 1464 1463 1462 1467
2869 3 1465 1463 1462 1467
2870 3 1466 1463 1462 1467
2871 1 1352 1364 1362 1357
2872 3 1352 1364 1362 1363
2873 3 1351 1352 1353 1354
2874 3 1351 1352 1353 1355
2875 3 1351 1352 1364 1362
2876 3 1351 1352 1364 1365
2877 1 1353 1352 1364 1362
2878 3 1353 1352 1364 1365
2879 2 1355 1357 1358 1359
2880 3 1355 1357 1358 1360
2881 3 1355 1357 1358 1361
2882 3 1355 1357 1362 1363
2883 1 1355 1357 1362 1364
2884 3 1358 1357 1362 1363
2885 3 1358 1357 1362 1364
2886 3 1352 1353 1355 1356
2887 1 1352 1353 1355 1357
2888 3 1354 1353 1355 1356
2889 3 1354 1353 1355 1357
2890 3 1354 1353 1352 1364
2891 1 1355 1353 1352 1364
2892 3 1357 1362 1364 1365
2893 3 1363 1362 1364 1365
2894 3 264 263 262 267
2895 3 265 263 262 267
2896 3 266 263 262 267
2897 1 572 584 582 577
2898 3 572 584 582 583
2899 3 1029 1028 1027 1032
2900 3 1030 1028 1027 1032
2901 3 1031 1028 1027 1032
2902 3 1023 1025 1027 1028
2903 1 1023 1025 1027 1032
2904 3 1026 1025 1027 1028
2905 3 1026 1025 1027 1032
2906 3 1022 1023 1025 1026
2907 1 1022 1023 1025 1027
2908 3 1024 1023 1025 1026
2909 3 1024 1023 1025 1027
2910 3 1024 1023 1022 1034
2911 1 1025 1023 1022 1034
2912 2 1025 1027 1028 1029
2913 3 1025 1027 1028 1030
2914 3 1025 1027 1028 1031
2915 3 1025 1027 1032 1033
2916 1 1025 1027 1032 1034
2917 3 1028 1027 1032 1033
2918 3 1028 1027 1032 1034
2919 3 1021 1022 1023 1024
2920 3 1021 1022 1023 1025
2921 3 1021 1022 1034 1032
2922 3 1021 1022 1034 1035
2923 1 1023 1022 1034 1032
2924 3 1023 1022 1034 1035
2925 3 1222 1227 1229 1230
2926 3 1228 1227 1229 1230
2927 2 965 967 968 969
2928 3 965 967 968 970
2929 3 965 967 968 971
2930 3 965 967 972 973
2931 1 965 967 972 974
2932 3 968 967 972 973
2933 3 968 967 972 974
2934 3 1027 1032 1034 1035
2935 3 1033 1032 1034 1035
2936 1 1022 1034 1032 1027
2937 3 1022 1034 1032 1033
2938 3 969 968 967 972
2939 3 970 968 967 972
2940 3 971 968 967 972
2941 3 931 932 933 934
2942 3 931 932 933 935
2943 3 931 932 944 942
2944 3 931 932 944 945
2945 1 933 932 944 942
2946 3 933 932 944 945
2947 3 933 935 937 938
2948 1 933 935 937 942
2949 3 936 935 937 938
2950 3 936 935 937 942
2951 3 932 933 935 936
2952 1 932 933 935 937
2953 3 934 933 935 936
2954 3 934 933 935 937
2955 3 934 933 932 944
2956 1 935 933 932 944
2957 2 935 937 938 939
2958 3 935 937 938 940
2959 3 935 937 938 941
2960 3 935 937 942 943
2961 1 935 937 942 944
2962 3 938 937 942 943
2963 3 938 937 942 944
2964 3 939 938 937 942
2965 3 940 938 937 942
2966 3 941 938 937 942
2967 1 932 944 942 937
2968 3 932 944 942 943
2969 3 937 942 944 945
2970 3 943 942 944 945
2971 1 1397 1409 1407 1402
2972 3 1397 1409 1407 1408
2973 3 1396 1397 1398 1399
2974 3 1396 1397 1398 1400
2975 3 1396 1397 1409 1407
2976 3 1396 1397 1409 1410
2977 1 1398 1397 1409 1407
2978 3 1398 1397 1409 1410
2979 3 1397 1398 1400 1401
2980 1 1397 1398 1400 1402
2981 3 1399 1398 1400 1401
2982 3 1399 1398 1400 1402
2983 3 1399 1398 1397 1409
2984 1 1400 1398 1397 1409
2985 3 1398 1400 1402 1403
2986 1 1398 1400 1402 1407
2987 3 1401 1400 1402 1403
2988 3 1401 1400 1402 1407
2989 3 1402 1407 1409 1410
2990 3 1408 1407 1409 1410
2991 2 1400 1402 1403 1404
2992 3 1400 1402 1403 1405
2993 3 1400 1402 1403 1406
2994 3 1400 1402 1407 1408
2995 1 1400 1402 1407 1409
2996 3 1403 1402 1407 1408
2997 3 1403 1402 1407 1409
2998 3 1404 1403 1402 1407
2999 3 1405 1403 1402 1407
3000 3 1406 1403 1402 1407

Impropers

1 1 182 181 183 194
2 1 185 183 186 187
3 1 187 185 188 192
4 1 192 187 193 194
5 1 183 182 184 185
6 1 194 182 192 195
7 1 812 811 813 824
8 1 197 196 198 209
9 1 198 197 199 200
10 1 209 197 207 210
11 1 200 198 201 202
12 1 813 812 814 815
13 1 824 812 822 825
14 1 817 815 818 822
15 1 815 813 816 817
16 1 822 817 823 824
17 1 207 202 208 209
18 1 42 37 43 44
19 1 37 35 38 42
20 1 33 32 34 35
21 1 44 32 42 45
22 1 35 33 36 37
23 1 32 31 33 44
24 1 123 122 124 125
25 1 134 122 132 135
26 1 177 172 178 179
27 1 122 121 123 134
28 1 1372 1370 1373 1377
29 1 1377 1372 1378 1379
30 1 1370 1368 1371 1372
31 1 987 982 988 989
32 1 982 980 983 987
33 1 978 977 979 980
34 1 989 977 987 990
35 1 980 978 981 982
36 1 485 483 486 487
37 1 483 482 484 485
38 1 494 482 492 495
39 1 492 487 493 494
40 1 487 485 488 492
41 1 482 481 483 494
42 1 407 406 408 419
43 1 408 407 409 410
44 1 419 407 417 420
45 1 410 408 411 412
46 1 412 410 413 417
47 1 417 412 418 419
48 1 147 142 148 149
49 1 142 140 143 147
50 1 140 138 141 142
51 1 138 137 139 140
52 1 149 137 147 150
53 1 157 155 158 162
54 1 155 153 156 157
55 1 162 157 163 164
56 1 153 152 154 155
57 1 164 152 162 165
58 1 152 151 153 164
59 1 252 247 253 254
60 1 557 556 558 569
61 1 560 558 561 562
62 1 172 170 173 177
63 1 787 785 788 792
64 1 707 706 708 719
65 1 47 46 48 59
66 1 167 166 168 179
67 1 168 167 169 170
68 1 179 167 177 180
69 1 48 47 49 50
70 1 59 47 57 60
71 1 57 52 58 59
72 1 170 168 171 172
73 1 52 50 53 57
74 1 50 48 51 52
75 1 708 707 709 710
76 1 719 707 717 720
77 1 785 783 786 787
78 1 588 587 589 590
79 1 599 587 597 600
80 1 717 712 718 719
81 1 710 708 711 712
82 1 712 710 713 717
83 1 532 530 533 537
84 1 537 532 538 539
85 1 393 392 394 395
86 1 404 392 402 405
87 1 402 397 403 404
88 1 397 395 398 402
89 1 77 76 78 89
90 1 78 77 79 80
91 1 89 77 87 90
92 1 395 393 396 397
93 1 80 78 81 82
94 1 467 466 468 479
95 1 530 528 531 532
96 1 527 526 528 539
97 1 528 527 529 530
98 1 539 527 537 540
99 1 272 271 273 284
100 1 273 272 274 275
101 1 284 272 282 285
102 1 275 273 276 277
103 1 282 277 283 284
104 1 277 275 278 282
105 1 5 3 6 7
106 1 110 108 111 112
107 1 107 106 108 119
108 1 962 961 963 974
109 1 1222 1220 1223 1227
110 1 137 136 138 149
111 1 477 472 478 479
112 1 472 470 473 477
113 1 468 467 469 470
114 1 479 467 477 480
115 1 470 468 471 472
116 1 2 1 3 14
117 1 678 677 679 680
118 1 689 677 687 690
119 1 680 678 681 682
120 1 687 682 688 689
121 1 682 680 683 687
122 1 3 2 4 5
123 1 14 2 12 15
124 1 112 110 113 117
125 1 108 107 109 110
126 1 119 107 117 120
127 1 117 112 118 119
128 1 337 335 338 342
129 1 342 337 343 344
130 1 335 333 336 337
131 1 332 331 333 344
132 1 333 332 334 335
133 1 344 332 342 345
134 1 287 286 288 299
135 1 288 287 289 290
136 1 299 287 297 300
137 1 292 290 293 297
138 1 290 288 291 292
139 1 297 292 298 299
140 1 677 676 678 689
141 1 782 781 783 794
142 1 783 782 784 785
143 1 794 782 792 795
144 1 867 862 868 869
145 1 647 646 648 659
146 1 648 647 649 650
147 1 659 647 657 660
148 1 650 648 651 652
149 1 652 650 653 657
150 1 657 652 658 659
151 1 862 860 863 867
152 1 737 736 738 749
153 1 740 738 741 742
154 1 738 737 739 740
155 1 749 737 747 750
156 1 747 742 748 749
157 1 742 740 743 747
158 1 372 367 373 374
159 1 367 365 368 372
160 1 327 322 328 329
161 1 365 363 366 367
162 1 363 362 364 365
163 1 374 362 372 375
164 1 362 361 363 374
165 1 642 637 643 644
166 1 20 18 21 22
167 1 22 20 23 27
168 1 17 16 18 29
169 1 18 17 19 20
170 1 29 17 27 30
171 1 27 22 28 29
172 1 1452 1447 1453 1454
173 1 82 80 83 87
174 1 392 391 393 404
175 1 87 82 88 89
176 1 632 631 633 644
177 1 633 632 634 635
178 1 644 632 642 645
179 1 635 633 636 637
180 1 637 635 638 642
181 1 662 661 663 674
182 1 663 662 664 665
183 1 674 662 672 675
184 1 605 603 606 607
185 1 603 602 604 605
186 1 614 602 612 615
187 1 602 601 603 614
188 1 607 605 608 612
189 1 7 5 8 12
190 1 612 607 613 614
191 1 667 665 668 672
192 1 665 663 666 667
193 1 1067 1066 1068 1079
194 1 12 7 13 14
195 1 552 547 553 554
196 1 452 451 453 464
197 1 1227 1222 1228 1229
198 1 453 452 454 455
199 1 464 452 462 465
200 1 455 453 456 457
201 1 457 455 458 462
202 1 462 457 463 464
203 1 792 787 793 794
204 1 317 316 318 329
205 1 318 317 319 320
206 1 329 317 327 330
207 1 547 545 548 552
208 1 542 541 543 554
209 1 545 543 546 547
210 1 543 542 544 545
211 1 554 542 552 555
212 1 320 318 321 322
213 1 322 320 323 327
214 1 592 590 593 597
215 1 597 592 598 599
216 1 442 440 443 447
217 1 447 442 448 449
218 1 230 228 231 232
219 1 228 227 229 230
220 1 239 227 237 240
221 1 227 226 228 239
222 1 232 230 233 237
223 1 237 232 238 239
224 1 672 667 673 674
225 1 437 436 438 449
226 1 438 437 439 440
227 1 449 437 447 450
228 1 440 438 441 442
229 1 1068 1067 1069 1070
230 1 1079 1067 1077 1080
231 1 772 770 773 777
232 1 1072 1070 1073 1077
233 1 1070 1068 1071 1072
234 1 770 768 771 772
235 1 777 772 778 779
236 1 1077 1072 1078 1079
237 1 67 65 68 72
238 1 65 63 66 67
239 1 72 67 73 74
240 1 63 62 64 65
241 1 74 62 72 75
242 1 307 305 308 312
243 1 305 303 306 307
244 1 312 307 313 314
245 1 432 427 433 434
246 1 723 722 724 725
247 1 734 722 732 735
248 1 732 727 733 734
249 1 727 725 728 732
250 1 725 723 726 727
251 1 722 721 723 734
252 1 303 302 304 305
253 1 314 302 312 315
254 1 302 301 303 314
255 1 427 425 428 432
256 1 425 423 426 427
257 1 423 422 424 425
258 1 434 422 432 435
259 1 422 421 423 434
260 1 92 91 93 104
261 1 93 92 94 95
262 1 104 92 102 105
263 1 102 97 103 104
264 1 97 95 98 102
265 1 95 93 96 97
266 1 202 200 203 207
267 1 702 697 703 704
268 1 697 695 698 702
269 1 695 693 696 697
270 1 617 616 618 629
271 1 618 617 619 620
272 1 629 617 627 630
273 1 125 123 126 127
274 1 127 125 128 132
275 1 1272 1267 1273 1274
276 1 377 376 378 389
277 1 378 377 379 380
278 1 389 377 387 390
279 1 348 347 349 350
280 1 359 347 357 360
281 1 350 348 351 352
282 1 347 346 348 359
283 1 352 350 353 357
284 1 627 622 628 629
285 1 622 620 623 627
286 1 620 618 621 622
287 1 132 127 133 134
288 1 357 352 358 359
289 1 380 378 381 382
290 1 693 692 694 695
291 1 704 692 702 705
292 1 692 691 693 704
293 1 977 976 978 989
294 1 752 751 753 764
295 1 753 752 754 755
296 1 764 752 762 765
297 1 755 753 756 757
298 1 757 755 758 762
299 1 762 757 763 764
300 1 1443 1442 1444 1445
301 1 1454 1442 1452 1455
302 1 797 796 798 809
303 1 800 798 801 802
304 1 798 797 799 800
305 1 809 797 807 810
306 1 802 800 803 807
307 1 807 802 808 809
308 1 768 767 769 770
309 1 779 767 777 780
310 1 767 766 768 779
311 1 62 61 63 74
312 1 247 245 248 252
313 1 242 241 243 254
314 1 243 242 244 245
315 1 254 242 252 255
316 1 245 243 246 247
317 1 567 562 568 569
318 1 558 557 559 560
319 1 569 557 567 570
320 1 1267 1265 1268 1272
321 1 562 560 563 567
322 1 1387 1385 1388 1392
323 1 1392 1387 1393 1394
324 1 1442 1441 1443 1454
325 1 590 588 591 592
326 1 1417 1415 1418 1422
327 1 1422 1417 1423 1424
328 1 1157 1156 1158 1169
329 1 1158 1157 1159 1160
330 1 1169 1157 1167 1170
331 1 1162 1160 1163 1167
332 1 1167 1162 1168 1169
333 1 1160 1158 1161 1162
334 1 1412 1411 1413 1424
335 1 1413 1412 1414 1415
336 1 1424 1412 1422 1425
337 1 1415 1413 1416 1417
338 1 1263 1262 1264 1265
339 1 1274 1262 1272 1275
340 1 1265 1263 1266 1267
341 1 1262 1261 1263 1274
342 1 842 841 843 854
343 1 843 842 844 845
344 1 854 842 852 855
345 1 967 965 968 972
346 1 1337 1336 1338 1349
347 1 575 573 576 577
348 1 582 577 583 584
349 1 577 575 578 582
350 1 573 572 574 575
351 1 584 572 582 585
352 1 572 571 573 584
353 1 517 515 518 522
354 1 1212 1207 1213 1214
355 1 1207 1205 1208 1212
356 1 1385 1383 1386 1387
357 1 920 918 921 922
358 1 922 920 923 927
359 1 927 922 928 929
360 1 860 858 861 862
361 1 992 991 993 1004
362 1 1017 1012 1018 1019
363 1 1007 1006 1008 1019
364 1 1008 1007 1009 1010
365 1 1019 1007 1017 1020
366 1 918 917 919 920
367 1 929 917 927 930
368 1 917 916 918 929
369 1 1010 1008 1011 1012
370 1 1012 1010 1013 1017
371 1 1347 1342 1348 1349
372 1 1338 1337 1339 1340
373 1 1349 1337 1347 1350
374 1 1040 1038 1041 1042
375 1 1038 1037 1039 1040
376 1 1049 1037 1047 1050
377 1 1367 1366 1368 1379
378 1 1037 1036 1038 1049
379 1 897 892 898 899
380 1 892 890 893 897
381 1 1342 1340 1343 1347
382 1 1340 1338 1341 1342
383 1 1042 1040 1043 1047
384 1 1047 1042 1048 1049
385 1 257 256 258 269
386 1 267 262 268 269
387 1 258 257 259 260
388 1 269 257 267 270
389 1 260 258 261 262
390 1 262 260 263 267
391 1 502 500 503 507
392 1 500 498 501 502
393 1 497 496 498 509
394 1 498 497 499 500
395 1 509 497 507 510
396 1 507 502 508 509
397 1 852 847 853 854
398 1 887 886 888 899
399 1 888 887 889 890
400 1 899 887 897 900
401 1 890 888 891 892
402 1 1302 1297 1303 1304
403 1 1428 1427 1429 1430
404 1 1439 1427 1437 1440
405 1 1437 1432 1438 1439
406 1 1482 1477 1483 1484
407 1 1427 1426 1428 1439
408 1 1430 1428 1431 1432
409 1 1432 1430 1433 1437
410 1 858 857 859 860
411 1 869 857 867 870
412 1 857 856 858 869
413 1 1445 1443 1446 1447
414 1 1447 1445 1448 1452
415 1 1297 1295 1298 1302
416 1 1477 1475 1478 1482
417 1 1472 1471 1473 1484
418 1 1473 1472 1474 1475
419 1 1484 1472 1482 1485
420 1 1475 1473 1476 1477
421 1 1205 1203 1206 1207
422 1 1202 1201 1203 1214
423 1 1203 1202 1204 1205
424 1 1214 1202 1212 1215
425 1 1052 1051 1053 1064
426 1 1053 1052 1054 1055
427 1 1064 1052 1062 1065
428 1 1055 1053 1056 1057
429 1 1062 1057 1063 1064
430 1 222 217 223 224
431 1 1057 1055 1058 1062
432 1 1137 1132 1138 1139
433 1 1113 1112 1114 1115
434 1 1124 1112 1122 1125
435 1 1128 1127 1129 1130
436 1 1139 1127 1137 1140
437 1 1130 1128 1131 1132
438 1 1115 1113 1116 1117
439 1 1112 1111 1113 1124
440 1 1287 1282 1288 1289
441 1 1280 1278 1281 1282
442 1 1282 1280 1283 1287
443 1 1132 1130 1133 1137
444 1 1278 1277 1279 1280
445 1 1289 1277 1287 1290
446 1 1277 1276 1278 1289
447 1 217 215 218 222
448 1 212 211 213 224
449 1 213 212 214 215
450 1 224 212 222 225
451 1 215 213 216 217
452 1 1218 1217 1219 1220
453 1 1229 1217 1227 1230
454 1 1122 1117 1123 1124
455 1 1117 1115 1118 1122
456 1 1217 1216 1218 1229
457 1 1368 1367 1369 1370
458 1 1379 1367 1377 1380
459 1 827 826 828 839
460 1 828 827 829 830
461 1 839 827 837 840
462 1 877 875 878 882
463 1 882 877 883 884
464 1 1250 1248 1251 1252
465 1 1252 1250 1253 1257
466 1 1257 1252 1258 1259
467 1 873 872 874 875
468 1 884 872 882 885
469 1 1383 1382 1384 1385
470 1 1394 1382 1392 1395
471 1 832 830 833 837
472 1 830 828 831 832
473 1 847 845 848 852
474 1 1002 997 1003 1004
475 1 1488 1487 1489 1490
476 1 1499 1487 1497 1500
477 1 875 873 876 877
478 1 1490 1488 1491 1492
479 1 1492 1490 1493 1497
480 1 1497 1492 1498 1499
481 1 1293 1292 1294 1295
482 1 1304 1292 1302 1305
483 1 950 948 951 952
484 1 872 871 873 884
485 1 947 946 948 959
486 1 948 947 949 950
487 1 959 947 957 960
488 1 952 950 953 957
489 1 957 952 958 959
490 1 1127 1126 1128 1139
491 1 1487 1486 1488 1499
492 1 1295 1293 1296 1297
493 1 1292 1291 1293 1304
494 1 513 512 514 515
495 1 524 512 522 525
496 1 512 511 513 524
497 1 1175 1173 1176 1177
498 1 1172 1171 1173 1184
499 1 1173 1172 1174 1175
500 1 1184 1172 1182 1185
501 1 1332 1327 1333 1334
502 1 1327 1325 1328 1332
503 1 1177 1175 1178 1182
504 1 1182 1177 1183 1184
505 1 1307 1306 1308 1319
506 1 1235 1233 1236 1237
507 1 1233 1232 1234 1235
508 1 1244 1232 1242 1245
509 1 1232 1231 1233 1244
510 1 1237 1235 1238 1242
511 1 1242 1237 1243 1244
512 1 1308 1307 1309 1310
513 1 1319 1307 1317 1320
514 1 515 513 516 517
515 1 905 903 906 907
516 1 912 907 913 914
517 1 907 905 908 912
518 1 903 902 904 905
519 1 914 902 912 915
520 1 902 901 903 914
521 1 1142 1141 1143 1154
522 1 1143 1142 1144 1145
523 1 1154 1142 1152 1155
524 1 1152 1147 1153 1154
525 1 1145 1143 1146 1147
526 1 1147 1145 1148 1152
527 1 1085 1083 1086 1087
528 1 1083 1082 1084 1085
529 1 1094 1082 1092 1095
530 1 1082 1081 1083 1094
531 1 1087 1085 1088 1092
532 1 1092 1087 1093 1094
533 1 1457 1456 1458 1469
534 1 1458 1457 1459 1460
535 1 1469 1457 1467 1470
536 1 1460 1458 1461 1462
537 1 1467 1462 1468 1469
538 1 1462 1460 1463 1467
539 1 1247 1246 1248 1259
540 1 1248 1247 1249 1250
541 1 1259 1247 1257 1260
542 1 963 962 964 965
543 1 974 962 972 975
544 1 993 992 994 995
545 1 1004 992 1002 1005
546 1 837 832 838 839
547 1 997 995 998 1002
548 1 995 993 996 997
549 1 1097 1096 1098 1109
550 1 1098 1097 1099 1100
551 1 1109 1097 1107 1110
552 1 1102 1100 1103 1107
553 1 1100 1098 1101 1102
554 1 1107 1102 1108 1109
555 1 1220 1218 1221 1222
556 1 522 517 523 524
557 1 1310 1308 1311 1312
558 1 1312 1310 1313 1317
559 1 1317 1312 1318 1319
560 1 382 380 383 387
561 1 387 382 388 389
562 1 587 586 588 599
563 1 1190 1188 1191 1192
564 1 1325 1323 1326 1327
565 1 1323 1322 1324 1325
566 1 1334 1322 1332 1335
567 1 1322 1321 1323 1334
568 1 1192 1190 1193 1197
569 1 1197 1192 1198 1199
570 1 1188 1187 1189 1190
571 1 1199 1187 1197 1200
572 1 1187 1186 1188 1199
573 1 1357 1355 1358 1362
574 1 965 963 966 967
575 1 845 843 846 847
576 1 1353 1352 1354 1355
577 1 1364 1352 1362 1365
578 1 1362 1357 1363 1364
579 1 1355 1353 1356 1357
580 1 1352 1351 1353 1364
581 1 1027 1025 1028 1032
582 1 1025 1023 1026 1027
583 1 1032 1027 1033 1034
584 1 1023 1022 1024 1025
585 1 1034 1022 1032 1035
586 1 1022 1021 1023 1034
587 1 1382 1381 1383 1394
588 1 972 967 973 974
589 1 932 931 933 944
590 1 933 932 934 935
591 1 944 932 942 945
592 1 937 935 938 942
593 1 935 933 936 937
594 1 942 937 943 944
595 1 1397 1396 1398 1409
596 1 1398 1397 1399 1400
597 1 1409 1397 1407 1410
598 1 1400 1398 1401 1402
599 1 1402 1400 1403 1407
600 1 1407 1402 1408 1409
